Generated by pymatgen.io.lammps.data.LammpsData

1000  atoms

   3  atom types

0.000000 28.756450  xlo xhi
0.000000 28.756449  ylo yhi
0.000000 25.986156  zlo zhi
-0.004660 14.350369 14.352692  xy xz yz

Masses

1   69.7230
2  107.8682
3   32.0650

Atoms

1     1 0.0000  6.410264  4.976367  5.164662
2     1 0.0000  9.280338  7.846906 10.361893
3     1 0.0000 12.150412 10.717444 15.559125
4     1 0.0000 15.020486 13.587982 20.756356
5     1 0.0000 17.890560 16.458521 25.953587
6     1 0.0000  6.409332 10.727657  5.164662
7     1 0.0000  9.279406 13.598195 10.361893
8     1 0.0000 12.149480 16.468734 15.559125
9     1 0.0000 15.019554 19.339272 20.756356
10    1 0.0000 17.889628 22.209811 25.953587
11    1 0.0000  6.408400 16.478947  5.164662
12    1 0.0000  9.278474 19.349485 10.361893
13    1 0.0000 12.148548 22.220023 15.559125
14    1 0.0000 15.018622 25.090562 20.756356
15    1 0.0000 17.888695 27.961100 25.953587
16    1 0.0000  6.407468 22.230236  5.164662
17    1 0.0000  9.277542 25.100775 10.361893
18    1 0.0000 12.147616 27.971313 15.559125
19    1 0.0000 15.017690 30.841852 20.756356
20    1 0.0000 17.887763 33.712390 25.953587
21    1 0.0000  6.406536 27.981526  5.164662
22    1 0.0000  9.276610 30.852065 10.361893
23    1 0.0000 12.146684 33.722603 15.559125
24    1 0.0000 15.016758 36.593141 20.756356
25    1 0.0000 17.886831 39.463680 25.953587
26    1 0.0000 12.161554  4.976367  5.164662
27    1 0.0000 15.031628  7.846906 10.361893
28    1 0.0000 17.901702 10.717444 15.559125
29    1 0.0000 20.771776 13.587982 20.756356
30    1 0.0000 23.641850 16.458521 25.953587
31    1 0.0000 12.160622 10.727657  5.164662
32    1 0.0000 15.030696 13.598195 10.361893
33    1 0.0000 17.900770 16.468734 15.559125
34    1 0.0000 20.770844 19.339272 20.756356
35    1 0.0000 23.640918 22.209811 25.953587
36    1 0.0000 12.159690 16.478947  5.164662
37    1 0.0000 15.029764 19.349485 10.361893
38    1 0.0000 17.899838 22.220023 15.559125
39    1 0.0000 20.769912 25.090562 20.756356
40    1 0.0000 23.639986 27.961100 25.953587
41    1 0.0000 12.158758 22.230236  5.164662
42    1 0.0000 15.028832 25.100775 10.361893
43    1 0.0000 17.898906 27.971313 15.559125
44    1 0.0000 20.768980 30.841852 20.756356
45    1 0.0000 23.639053 33.712390 25.953587
46    1 0.0000 12.157826 27.981526  5.164662
47    1 0.0000 15.027900 30.852065 10.361893
48    1 0.0000 17.897974 33.722603 15.559125
49    1 0.0000 20.768048 36.593141 20.756356
50    1 0.0000 23.638121 39.463680 25.953587
51    1 0.0000 17.912844  4.976367  5.164662
52    1 0.0000 20.782918  7.846906 10.361893
53    1 0.0000 23.652992 10.717444 15.559125
54    1 0.0000 26.523066 13.587982 20.756356
55    1 0.0000 29.393140 16.458521 25.953587
56    1 0.0000 17.911912 10.727657  5.164662
57    1 0.0000 20.781986 13.598195 10.361893
58    1 0.0000 23.652060 16.468734 15.559125
59    1 0.0000 26.522134 19.339272 20.756356
60    1 0.0000 29.392208 22.209811 25.953587
61    1 0.0000 17.910980 16.478947  5.164662
62    1 0.0000 20.781054 19.349485 10.361893
63    1 0.0000 23.651128 22.220023 15.559125
64    1 0.0000 26.521202 25.090562 20.756356
65    1 0.0000 29.391276 27.961100 25.953587
66    1 0.0000 17.910048 22.230236  5.164662
67    1 0.0000 20.780122 25.100775 10.361893
68    1 0.0000 23.650196 27.971313 15.559125
69    1 0.0000 26.520270 30.841852 20.756356
70    1 0.0000 29.390344 33.712390 25.953587
71    1 0.0000 17.909116 27.981526  5.164662
72    1 0.0000 20.779190 30.852065 10.361893
73    1 0.0000 23.649264 33.722603 15.559125
74    1 0.0000 26.519338 36.593141 20.756356
75    1 0.0000 29.389411 39.463680 25.953587
76    1 0.0000 23.664134  4.976367  5.164662
77    1 0.0000 26.534208  7.846906 10.361893
78    1 0.0000 29.404282 10.717444 15.559125
79    1 0.0000 32.274356 13.587982 20.756356
80    1 0.0000 35.144430 16.458521 25.953587
81    1 0.0000 23.663202 10.727657  5.164662
82    1 0.0000 26.533276 13.598195 10.361893
83    1 0.0000 29.403350 16.468734 15.559125
84    1 0.0000 32.273424 19.339272 20.756356
85    1 0.0000 35.143498 22.209811 25.953587
86    1 0.0000 23.662270 16.478947  5.164662
87    1 0.0000 26.532344 19.349485 10.361893
88    1 0.0000 29.402418 22.220023 15.559125
89    1 0.0000 32.272492 25.090562 20.756356
90    1 0.0000 35.142566 27.961100 25.953587
91    1 0.0000 23.661338 22.230236  5.164662
92    1 0.0000 26.531412 25.100775 10.361893
93    1 0.0000 29.401486 27.971313 15.559125
94    1 0.0000 32.271560 30.841852 20.756356
95    1 0.0000 35.141634 33.712390 25.953587
96    1 0.0000 23.660406 27.981526  5.164662
97    1 0.0000 26.530480 30.852065 10.361893
98    1 0.0000 29.400554 33.722603 15.559125
99    1 0.0000 32.270628 36.593141 20.756356
100   1 0.0000 35.140701 39.463680 25.953587
101   1 0.0000 29.415424  4.976367  5.164662
102   1 0.0000 32.285498  7.846906 10.361893
103   1 0.0000 35.155572 10.717444 15.559125
104   1 0.0000 38.025646 13.587982 20.756356
105   1 0.0000 40.895720 16.458521 25.953587
106   1 0.0000 29.414492 10.727657  5.164662
107   1 0.0000 32.284566 13.598195 10.361893
108   1 0.0000 35.154640 16.468734 15.559125
109   1 0.0000 38.024714 19.339272 20.756356
110   1 0.0000 40.894788 22.209811 25.953587
111   1 0.0000 29.413560 16.478947  5.164662
112   1 0.0000 32.283634 19.349485 10.361893
113   1 0.0000 35.153708 22.220023 15.559125
114   1 0.0000 38.023782 25.090562 20.756356
115   1 0.0000 40.893856 27.961100 25.953587
116   1 0.0000 29.412628 22.230236  5.164662
117   1 0.0000 32.282702 25.100775 10.361893
118   1 0.0000 35.152776 27.971313 15.559125
119   1 0.0000 38.022850 30.841852 20.756356
120   1 0.0000 40.892924 33.712390 25.953587
121   1 0.0000 29.411696 27.981526  5.164662
122   1 0.0000 32.281770 30.852065 10.361893
123   1 0.0000 35.151844 33.722603 15.559125
124   1 0.0000 38.021918 36.593141 20.756356
125   1 0.0000 40.891992 39.463680 25.953587
126   1 0.0000  3.540292  4.975801  2.566046
127   1 0.0000  6.410366  7.846339  7.763278
128   1 0.0000  9.280440 10.716878 12.960509
129   1 0.0000 12.150513 13.587416 18.157740
130   1 0.0000 15.020587 16.457954 23.354972
131   1 0.0000  3.539360 10.727091  2.566046
132   1 0.0000  6.409434 13.597629  7.763278
133   1 0.0000  9.279507 16.468167 12.960509
134   1 0.0000 12.149581 19.338706 18.157740
135   1 0.0000 15.019655 22.209244 23.354972
136   1 0.0000  3.538428 16.478380  2.566046
137   1 0.0000  6.408502 19.348919  7.763278
138   1 0.0000  9.278575 22.219457 12.960509
139   1 0.0000 12.148649 25.089996 18.157740
140   1 0.0000 15.018723 27.960534 23.354972
141   1 0.0000  3.537496 22.229670  2.566046
142   1 0.0000  6.407570 25.100209  7.763278
143   1 0.0000  9.277643 27.970747 12.960509
144   1 0.0000 12.147717 30.841285 18.157740
145   1 0.0000 15.017791 33.711824 23.354972
146   1 0.0000  3.536564 27.980960  2.566046
147   1 0.0000  6.406638 30.851498  7.763278
148   1 0.0000  9.276711 33.722037 12.960509
149   1 0.0000 12.146785 36.592575 18.157740
150   1 0.0000 15.016859 39.463114 23.354972
151   1 0.0000  9.291582  4.975801  2.566046
152   1 0.0000 12.161656  7.846339  7.763278
153   1 0.0000 15.031730 10.716878 12.960509
154   1 0.0000 17.901803 13.587416 18.157740
155   1 0.0000 20.771877 16.457954 23.354972
156   1 0.0000  9.290650 10.727091  2.566046
157   1 0.0000 12.160724 13.597629  7.763278
158   1 0.0000 15.030798 16.468167 12.960509
159   1 0.0000 17.900871 19.338706 18.157740
160   1 0.0000 20.770945 22.209244 23.354972
161   1 0.0000  9.289718 16.478380  2.566046
162   1 0.0000 12.159792 19.348919  7.763278
163   1 0.0000 15.029865 22.219457 12.960509
164   1 0.0000 17.899939 25.089996 18.157740
165   1 0.0000 20.770013 27.960534 23.354972
166   1 0.0000  9.288786 22.229670  2.566046
167   1 0.0000 12.158860 25.100209  7.763278
168   1 0.0000 15.028933 27.970747 12.960509
169   1 0.0000 17.899007 30.841285 18.157740
170   1 0.0000 20.769081 33.711824 23.354972
171   1 0.0000  9.287854 27.980960  2.566046
172   1 0.0000 12.157928 30.851498  7.763278
173   1 0.0000 15.028001 33.722037 12.960509
174   1 0.0000 17.898075 36.592575 18.157740
175   1 0.0000 20.768149 39.463114 23.354972
176   1 0.0000 15.042872  4.975801  2.566046
177   1 0.0000 17.912946  7.846339  7.763278
178   1 0.0000 20.783020 10.716878 12.960509
179   1 0.0000 23.653093 13.587416 18.157740
180   1 0.0000 26.523167 16.457954 23.354972
181   1 0.0000 15.041940 10.727091  2.566046
182   1 0.0000 17.912014 13.597629  7.763278
183   1 0.0000 20.782088 16.468167 12.960509
184   1 0.0000 23.652161 19.338706 18.157740
185   1 0.0000 26.522235 22.209244 23.354972
186   1 0.0000 15.041008 16.478380  2.566046
187   1 0.0000 17.911082 19.348919  7.763278
188   1 0.0000 20.781156 22.219457 12.960509
189   1 0.0000 23.651229 25.089996 18.157740
190   1 0.0000 26.521303 27.960534 23.354972
191   1 0.0000 15.040076 22.229670  2.566046
192   1 0.0000 17.910150 25.100209  7.763278
193   1 0.0000 20.780223 27.970747 12.960509
194   1 0.0000 23.650297 30.841285 18.157740
195   1 0.0000 26.520371 33.711824 23.354972
196   1 0.0000 15.039144 27.980960  2.566046
197   1 0.0000 17.909218 30.851498  7.763278
198   1 0.0000 20.779291 33.722037 12.960509
199   1 0.0000 23.649365 36.592575 18.157740
200   1 0.0000 26.519439 39.463114 23.354972
201   1 0.0000 20.794162  4.975801  2.566046
202   1 0.0000 23.664236  7.846339  7.763278
203   1 0.0000 26.534310 10.716878 12.960509
204   1 0.0000 29.404383 13.587416 18.157740
205   1 0.0000 32.274457 16.457954 23.354972
206   1 0.0000 20.793230 10.727091  2.566046
207   1 0.0000 23.663304 13.597629  7.763278
208   1 0.0000 26.533378 16.468167 12.960509
209   1 0.0000 29.403451 19.338706 18.157740
210   1 0.0000 32.273525 22.209244 23.354972
211   1 0.0000 20.792298 16.478380  2.566046
212   1 0.0000 23.662372 19.348919  7.763278
213   1 0.0000 26.532446 22.219457 12.960509
214   1 0.0000 29.402519 25.089996 18.157740
215   1 0.0000 32.272593 27.960534 23.354972
216   1 0.0000 20.791366 22.229670  2.566046
217   1 0.0000 23.661440 25.100209  7.763278
218   1 0.0000 26.531514 27.970747 12.960509
219   1 0.0000 29.401587 30.841285 18.157740
220   1 0.0000 32.271661 33.711824 23.354972
221   1 0.0000 20.790434 27.980960  2.566046
222   1 0.0000 23.660508 30.851498  7.763278
223   1 0.0000 26.530581 33.722037 12.960509
224   1 0.0000 29.400655 36.592575 18.157740
225   1 0.0000 32.270729 39.463114 23.354972
226   1 0.0000 26.545452  4.975801  2.566046
227   1 0.0000 29.415526  7.846339  7.763278
228   1 0.0000 32.285600 10.716878 12.960509
229   1 0.0000 35.155673 13.587416 18.157740
230   1 0.0000 38.025747 16.457954 23.354972
231   1 0.0000 26.544520 10.727091  2.566046
232   1 0.0000 29.414594 13.597629  7.763278
233   1 0.0000 32.284668 16.468167 12.960509
234   1 0.0000 35.154741 19.338706 18.157740
235   1 0.0000 38.024815 22.209244 23.354972
236   1 0.0000 26.543588 16.478380  2.566046
237   1 0.0000 29.413662 19.348919  7.763278
238   1 0.0000 32.283736 22.219457 12.960509
239   1 0.0000 35.153809 25.089996 18.157740
240   1 0.0000 38.023883 27.960534 23.354972
241   1 0.0000 26.542656 22.229670  2.566046
242   1 0.0000 29.412730 25.100209  7.763278
243   1 0.0000 32.282804 27.970747 12.960509
244   1 0.0000 35.152877 30.841285 18.157740
245   1 0.0000 38.022951 33.711824 23.354972
246   1 0.0000 26.541724 27.980960  2.566046
247   1 0.0000 29.411798 30.851498  7.763278
248   1 0.0000 32.281871 33.722037 12.960509
249   1 0.0000 35.151945 36.592575 18.157740
250   1 0.0000 38.022019 39.463114 23.354972
251   2 0.0000  3.531536  7.869775  5.165847
252   2 0.0000  6.401610 10.740313 10.363078
253   2 0.0000  9.271684 13.610852 15.560309
254   2 0.0000 12.141758 16.481390 20.757541
255   2 0.0000 15.011831 19.351929 25.954772
256   2 0.0000  3.530604 13.621065  5.165847
257   2 0.0000  6.400678 16.491603 10.363078
258   2 0.0000  9.270752 19.362141 15.560309
259   2 0.0000 12.140825 22.232680 20.757541
260   2 0.0000 15.010899 25.103218 25.954772
261   2 0.0000  3.529672 19.372354  5.165847
262   2 0.0000  6.399746 22.242893 10.363078
263   2 0.0000  9.269820 25.113431 15.560309
264   2 0.0000 12.139893 27.983970 20.757541
265   2 0.0000 15.009967 30.854508 25.954772
266   2 0.0000  3.528740 25.123644  5.165847
267   2 0.0000  6.398814 27.994183 10.363078
268   2 0.0000  9.268888 30.864721 15.560309
269   2 0.0000 12.138961 33.735259 20.757541
270   2 0.0000 15.009035 36.605798 25.954772
271   2 0.0000  3.527808 30.874934  5.165847
272   2 0.0000  6.397882 33.745472 10.363078
273   2 0.0000  9.267956 36.616011 15.560309
274   2 0.0000 12.138029 39.486549 20.757541
275   2 0.0000 15.008103 42.357088 25.954772
276   2 0.0000  9.282826  7.869775  5.165847
277   2 0.0000 12.152900 10.740313 10.363078
278   2 0.0000 15.022974 13.610852 15.560309
279   2 0.0000 17.893048 16.481390 20.757541
280   2 0.0000 20.763121 19.351929 25.954772
281   2 0.0000  9.281894 13.621065  5.165847
282   2 0.0000 12.151968 16.491603 10.363078
283   2 0.0000 15.022042 19.362141 15.560309
284   2 0.0000 17.892116 22.232680 20.757541
285   2 0.0000 20.762189 25.103218 25.954772
286   2 0.0000  9.280962 19.372354  5.165847
287   2 0.0000 12.151036 22.242893 10.363078
288   2 0.0000 15.021110 25.113431 15.560309
289   2 0.0000 17.891183 27.983970 20.757541
290   2 0.0000 20.761257 30.854508 25.954772
291   2 0.0000  9.280030 25.123644  5.165847
292   2 0.0000 12.150104 27.994183 10.363078
293   2 0.0000 15.020178 30.864721 15.560309
294   2 0.0000 17.890251 33.735259 20.757541
295   2 0.0000 20.760325 36.605798 25.954772
296   2 0.0000  9.279098 30.874934  5.165847
297   2 0.0000 12.149172 33.745472 10.363078
298   2 0.0000 15.019246 36.616011 15.560309
299   2 0.0000 17.889319 39.486549 20.757541
300   2 0.0000 20.759393 42.357088 25.954772
301   2 0.0000 15.034116  7.869775  5.165847
302   2 0.0000 17.904190 10.740313 10.363078
303   2 0.0000 20.774264 13.610852 15.560309
304   2 0.0000 23.644338 16.481390 20.757541
305   2 0.0000 26.514411 19.351929 25.954772
306   2 0.0000 15.033184 13.621065  5.165847
307   2 0.0000 17.903258 16.491603 10.363078
308   2 0.0000 20.773332 19.362141 15.560309
309   2 0.0000 23.643406 22.232680 20.757541
310   2 0.0000 26.513479 25.103218 25.954772
311   2 0.0000 15.032252 19.372354  5.165847
312   2 0.0000 17.902326 22.242893 10.363078
313   2 0.0000 20.772400 25.113431 15.560309
314   2 0.0000 23.642474 27.983970 20.757541
315   2 0.0000 26.512547 30.854508 25.954772
316   2 0.0000 15.031320 25.123644  5.165847
317   2 0.0000 17.901394 27.994183 10.363078
318   2 0.0000 20.771468 30.864721 15.560309
319   2 0.0000 23.641541 33.735259 20.757541
320   2 0.0000 26.511615 36.605798 25.954772
321   2 0.0000 15.030388 30.874934  5.165847
322   2 0.0000 17.900462 33.745472 10.363078
323   2 0.0000 20.770536 36.616011 15.560309
324   2 0.0000 23.640609 39.486549 20.757541
325   2 0.0000 26.510683 42.357088 25.954772
326   2 0.0000 20.785406  7.869775  5.165847
327   2 0.0000 23.655480 10.740313 10.363078
328   2 0.0000 26.525554 13.610852 15.560309
329   2 0.0000 29.395628 16.481390 20.757541
330   2 0.0000 32.265701 19.351929 25.954772
331   2 0.0000 20.784474 13.621065  5.165847
332   2 0.0000 23.654548 16.491603 10.363078
333   2 0.0000 26.524622 19.362141 15.560309
334   2 0.0000 29.394696 22.232680 20.757541
335   2 0.0000 32.264769 25.103218 25.954772
336   2 0.0000 20.783542 19.372354  5.165847
337   2 0.0000 23.653616 22.242893 10.363078
338   2 0.0000 26.523690 25.113431 15.560309
339   2 0.0000 29.393764 27.983970 20.757541
340   2 0.0000 32.263837 30.854508 25.954772
341   2 0.0000 20.782610 25.123644  5.165847
342   2 0.0000 23.652684 27.994183 10.363078
343   2 0.0000 26.522758 30.864721 15.560309
344   2 0.0000 29.392831 33.735259 20.757541
345   2 0.0000 32.262905 36.605798 25.954772
346   2 0.0000 20.781678 30.874934  5.165847
347   2 0.0000 23.651752 33.745472 10.363078
348   2 0.0000 26.521826 36.616011 15.560309
349   2 0.0000 29.391899 39.486549 20.757541
350   2 0.0000 32.261973 42.357088 25.954772
351   2 0.0000 26.536696  7.869775  5.165847
352   2 0.0000 29.406770 10.740313 10.363078
353   2 0.0000 32.276844 13.610852 15.560309
354   2 0.0000 35.146918 16.481390 20.757541
355   2 0.0000 38.016991 19.351929 25.954772
356   2 0.0000 26.535764 13.621065  5.165847
357   2 0.0000 29.405838 16.491603 10.363078
358   2 0.0000 32.275912 19.362141 15.560309
359   2 0.0000 35.145986 22.232680 20.757541
360   2 0.0000 38.016059 25.103218 25.954772
361   2 0.0000 26.534832 19.372354  5.165847
362   2 0.0000 29.404906 22.242893 10.363078
363   2 0.0000 32.274980 25.113431 15.560309
364   2 0.0000 35.145054 27.983970 20.757541
365   2 0.0000 38.015127 30.854508 25.954772
366   2 0.0000 26.533900 25.123644  5.165847
367   2 0.0000 29.403974 27.994183 10.363078
368   2 0.0000 32.274048 30.864721 15.560309
369   2 0.0000 35.144122 33.735259 20.757541
370   2 0.0000 38.014195 36.605798 25.954772
371   2 0.0000 26.532968 30.874934  5.165847
372   2 0.0000 29.403042 33.745472 10.363078
373   2 0.0000 32.273116 36.616011 15.560309
374   2 0.0000 35.143189 39.486549 20.757541
375   2 0.0000 38.013263 42.357088 25.954772
376   2 0.0000  6.434166  2.097542  2.567231
377   2 0.0000  9.304240  4.968080  7.764462
378   2 0.0000 12.174314  7.838618 12.961694
379   2 0.0000 15.044388 10.709157 18.158925
380   2 0.0000 17.914462 13.579695 23.356156
381   2 0.0000  6.433234  7.848831  2.567231
382   2 0.0000  9.303308 10.719370  7.764462
383   2 0.0000 12.173382 13.589908 12.961694
384   2 0.0000 15.043456 16.460447 18.158925
385   2 0.0000 17.913529 19.330985 23.356156
386   2 0.0000  6.432302 13.600121  2.567231
387   2 0.0000  9.302376 16.470660  7.764462
388   2 0.0000 12.172450 19.341198 12.961694
389   2 0.0000 15.042524 22.211736 18.158925
390   2 0.0000 17.912597 25.082275 23.356156
391   2 0.0000  6.431370 19.351411  2.567231
392   2 0.0000  9.301444 22.221949  7.764462
393   2 0.0000 12.171518 25.092488 12.961694
394   2 0.0000 15.041592 27.963026 18.158925
395   2 0.0000 17.911665 30.833565 23.356156
396   2 0.0000  6.430438 25.102701  2.567231
397   2 0.0000  9.300512 27.973239  7.764462
398   2 0.0000 12.170586 30.843777 12.961694
399   2 0.0000 15.040660 33.714316 18.158925
400   2 0.0000 17.910733 36.584854 23.356156
401   2 0.0000 12.185456  2.097542  2.567231
402   2 0.0000 15.055530  4.968080  7.764462
403   2 0.0000 17.925604  7.838618 12.961694
404   2 0.0000 20.795678 10.709157 18.158925
405   2 0.0000 23.665752 13.579695 23.356156
406   2 0.0000 12.184524  7.848831  2.567231
407   2 0.0000 15.054598 10.719370  7.764462
408   2 0.0000 17.924672 13.589908 12.961694
409   2 0.0000 20.794746 16.460447 18.158925
410   2 0.0000 23.664820 19.330985 23.356156
411   2 0.0000 12.183592 13.600121  2.567231
412   2 0.0000 15.053666 16.470660  7.764462
413   2 0.0000 17.923740 19.341198 12.961694
414   2 0.0000 20.793814 22.211736 18.158925
415   2 0.0000 23.663887 25.082275 23.356156
416   2 0.0000 12.182660 19.351411  2.567231
417   2 0.0000 15.052734 22.221949  7.764462
418   2 0.0000 17.922808 25.092488 12.961694
419   2 0.0000 20.792882 27.963026 18.158925
420   2 0.0000 23.662955 30.833565 23.356156
421   2 0.0000 12.181728 25.102701  2.567231
422   2 0.0000 15.051802 27.973239  7.764462
423   2 0.0000 17.921876 30.843777 12.961694
424   2 0.0000 20.791950 33.714316 18.158925
425   2 0.0000 23.662023 36.584854 23.356156
426   2 0.0000 17.936746  2.097542  2.567231
427   2 0.0000 20.806820  4.968080  7.764462
428   2 0.0000 23.676894  7.838618 12.961694
429   2 0.0000 26.546968 10.709157 18.158925
430   2 0.0000 29.417042 13.579695 23.356156
431   2 0.0000 17.935814  7.848831  2.567231
432   2 0.0000 20.805888 10.719370  7.764462
433   2 0.0000 23.675962 13.589908 12.961694
434   2 0.0000 26.546036 16.460447 18.158925
435   2 0.0000 29.416110 19.330985 23.356156
436   2 0.0000 17.934882 13.600121  2.567231
437   2 0.0000 20.804956 16.470660  7.764462
438   2 0.0000 23.675030 19.341198 12.961694
439   2 0.0000 26.545104 22.211736 18.158925
440   2 0.0000 29.415177 25.082275 23.356156
441   2 0.0000 17.933950 19.351411  2.567231
442   2 0.0000 20.804024 22.221949  7.764462
443   2 0.0000 23.674098 25.092488 12.961694
444   2 0.0000 26.544172 27.963026 18.158925
445   2 0.0000 29.414245 30.833565 23.356156
446   2 0.0000 17.933018 25.102701  2.567231
447   2 0.0000 20.803092 27.973239  7.764462
448   2 0.0000 23.673166 30.843777 12.961694
449   2 0.0000 26.543240 33.714316 18.158925
450   2 0.0000 29.413313 36.584854 23.356156
451   2 0.0000 23.688036  2.097542  2.567231
452   2 0.0000 26.558110  4.968080  7.764462
453   2 0.0000 29.428184  7.838618 12.961694
454   2 0.0000 32.298258 10.709157 18.158925
455   2 0.0000 35.168332 13.579695 23.356156
456   2 0.0000 23.687104  7.848831  2.567231
457   2 0.0000 26.557178 10.719370  7.764462
458   2 0.0000 29.427252 13.589908 12.961694
459   2 0.0000 32.297326 16.460447 18.158925
460   2 0.0000 35.167400 19.330985 23.356156
461   2 0.0000 23.686172 13.600121  2.567231
462   2 0.0000 26.556246 16.470660  7.764462
463   2 0.0000 29.426320 19.341198 12.961694
464   2 0.0000 32.296394 22.211736 18.158925
465   2 0.0000 35.166468 25.082275 23.356156
466   2 0.0000 23.685240 19.351411  2.567231
467   2 0.0000 26.555314 22.221949  7.764462
468   2 0.0000 29.425388 25.092488 12.961694
469   2 0.0000 32.295462 27.963026 18.158925
470   2 0.0000 35.165535 30.833565 23.356156
471   2 0.0000 23.684308 25.102701  2.567231
472   2 0.0000 26.554382 27.973239  7.764462
473   2 0.0000 29.424456 30.843777 12.961694
474   2 0.0000 32.294530 33.714316 18.158925
475   2 0.0000 35.164603 36.584854 23.356156
476   2 0.0000 29.439326  2.097542  2.567231
477   2 0.0000 32.309400  4.968080  7.764462
478   2 0.0000 35.179474  7.838618 12.961694
479   2 0.0000 38.049548 10.709157 18.158925
480   2 0.0000 40.919622 13.579695 23.356156
481   2 0.0000 29.438394  7.848831  2.567231
482   2 0.0000 32.308468 10.719370  7.764462
483   2 0.0000 35.178542 13.589908 12.961694
484   2 0.0000 38.048616 16.460447 18.158925
485   2 0.0000 40.918690 19.330985 23.356156
486   2 0.0000 29.437462 13.600121  2.567231
487   2 0.0000 32.307536 16.470660  7.764462
488   2 0.0000 35.177610 19.341198 12.961694
489   2 0.0000 38.047684 22.211736 18.158925
490   2 0.0000 40.917758 25.082275 23.356156
491   2 0.0000 29.436530 19.351411  2.567231
492   2 0.0000 32.306604 22.221949  7.764462
493   2 0.0000 35.176678 25.092488 12.961694
494   2 0.0000 38.046752 27.963026 18.158925
495   2 0.0000 40.916826 30.833565 23.356156
496   2 0.0000 29.435598 25.102701  2.567231
497   2 0.0000 32.305672 27.973239  7.764462
498   2 0.0000 35.175746 30.843777 12.961694
499   2 0.0000 38.045820 33.714316 18.158925
500   2 0.0000 40.915893 36.584854 23.356156
501   3 0.0000  4.982896  3.757655  3.857185
502   3 0.0000  7.852970  6.628193  9.054416
503   3 0.0000 10.723044  9.498732 14.251648
504   3 0.0000 13.593118 12.369270 19.448879
505   3 0.0000 16.463191 15.239809 24.646110
506   3 0.0000  4.981964  9.508945  3.857185
507   3 0.0000  7.852038 12.379483  9.054416
508   3 0.0000 10.722112 15.250021 14.251648
509   3 0.0000 13.592185 18.120560 19.448879
510   3 0.0000 16.462259 20.991098 24.646110
511   3 0.0000  4.981032 15.260234  3.857185
512   3 0.0000  7.851106 18.130773  9.054416
513   3 0.0000 10.721180 21.001311 14.251648
514   3 0.0000 13.591253 23.871850 19.448879
515   3 0.0000 16.461327 26.742388 24.646110
516   3 0.0000  4.980100 21.011524  3.857185
517   3 0.0000  7.850174 23.882063  9.054416
518   3 0.0000 10.720248 26.752601 14.251648
519   3 0.0000 13.590321 29.623139 19.448879
520   3 0.0000 16.460395 32.493678 24.646110
521   3 0.0000  4.979168 26.762814  3.857185
522   3 0.0000  7.849242 29.633352  9.054416
523   3 0.0000 10.719316 32.503891 14.251648
524   3 0.0000 13.589389 35.374429 19.448879
525   3 0.0000 16.459463 38.244968 24.646110
526   3 0.0000 10.734186  3.757655  3.857185
527   3 0.0000 13.604260  6.628193  9.054416
528   3 0.0000 16.474334  9.498732 14.251648
529   3 0.0000 19.344408 12.369270 19.448879
530   3 0.0000 22.214481 15.239809 24.646110
531   3 0.0000 10.733254  9.508945  3.857185
532   3 0.0000 13.603328 12.379483  9.054416
533   3 0.0000 16.473402 15.250021 14.251648
534   3 0.0000 19.343475 18.120560 19.448879
535   3 0.0000 22.213549 20.991098 24.646110
536   3 0.0000 10.732322 15.260234  3.857185
537   3 0.0000 13.602396 18.130773  9.054416
538   3 0.0000 16.472470 21.001311 14.251648
539   3 0.0000 19.342543 23.871850 19.448879
540   3 0.0000 22.212617 26.742388 24.646110
541   3 0.0000 10.731390 21.011524  3.857185
542   3 0.0000 13.601464 23.882063  9.054416
543   3 0.0000 16.471538 26.752601 14.251648
544   3 0.0000 19.341611 29.623139 19.448879
545   3 0.0000 22.211685 32.493678 24.646110
546   3 0.0000 10.730458 26.762814  3.857185
547   3 0.0000 13.600532 29.633352  9.054416
548   3 0.0000 16.470606 32.503891 14.251648
549   3 0.0000 19.340679 35.374429 19.448879
550   3 0.0000 22.210753 38.244968 24.646110
551   3 0.0000 16.485476  3.757655  3.857185
552   3 0.0000 19.355550  6.628193  9.054416
553   3 0.0000 22.225624  9.498732 14.251648
554   3 0.0000 25.095698 12.369270 19.448879
555   3 0.0000 27.965771 15.239809 24.646110
556   3 0.0000 16.484544  9.508945  3.857185
557   3 0.0000 19.354618 12.379483  9.054416
558   3 0.0000 22.224692 15.250021 14.251648
559   3 0.0000 25.094766 18.120560 19.448879
560   3 0.0000 27.964839 20.991098 24.646110
561   3 0.0000 16.483612 15.260234  3.857185
562   3 0.0000 19.353686 18.130773  9.054416
563   3 0.0000 22.223760 21.001311 14.251648
564   3 0.0000 25.093833 23.871850 19.448879
565   3 0.0000 27.963907 26.742388 24.646110
566   3 0.0000 16.482680 21.011524  3.857185
567   3 0.0000 19.352754 23.882063  9.054416
568   3 0.0000 22.222828 26.752601 14.251648
569   3 0.0000 25.092901 29.623139 19.448879
570   3 0.0000 27.962975 32.493678 24.646110
571   3 0.0000 16.481748 26.762814  3.857185
572   3 0.0000 19.351822 29.633352  9.054416
573   3 0.0000 22.221896 32.503891 14.251648
574   3 0.0000 25.091969 35.374429 19.448879
575   3 0.0000 27.962043 38.244968 24.646110
576   3 0.0000 22.236766  3.757655  3.857185
577   3 0.0000 25.106840  6.628193  9.054416
578   3 0.0000 27.976914  9.498732 14.251648
579   3 0.0000 30.846988 12.369270 19.448879
580   3 0.0000 33.717061 15.239809 24.646110
581   3 0.0000 22.235834  9.508945  3.857185
582   3 0.0000 25.105908 12.379483  9.054416
583   3 0.0000 27.975982 15.250021 14.251648
584   3 0.0000 30.846056 18.120560 19.448879
585   3 0.0000 33.716129 20.991098 24.646110
586   3 0.0000 22.234902 15.260234  3.857185
587   3 0.0000 25.104976 18.130773  9.054416
588   3 0.0000 27.975050 21.001311 14.251648
589   3 0.0000 30.845124 23.871850 19.448879
590   3 0.0000 33.715197 26.742388 24.646110
591   3 0.0000 22.233970 21.011524  3.857185
592   3 0.0000 25.104044 23.882063  9.054416
593   3 0.0000 27.974118 26.752601 14.251648
594   3 0.0000 30.844191 29.623139 19.448879
595   3 0.0000 33.714265 32.493678 24.646110
596   3 0.0000 22.233038 26.762814  3.857185
597   3 0.0000 25.103112 29.633352  9.054416
598   3 0.0000 27.973186 32.503891 14.251648
599   3 0.0000 30.843259 35.374429 19.448879
600   3 0.0000 33.713333 38.244968 24.646110
601   3 0.0000 27.988056  3.757655  3.857185
602   3 0.0000 30.858130  6.628193  9.054416
603   3 0.0000 33.728204  9.498732 14.251648
604   3 0.0000 36.598278 12.369270 19.448879
605   3 0.0000 39.468351 15.239809 24.646110
606   3 0.0000 27.987124  9.508945  3.857185
607   3 0.0000 30.857198 12.379483  9.054416
608   3 0.0000 33.727272 15.250021 14.251648
609   3 0.0000 36.597346 18.120560 19.448879
610   3 0.0000 39.467419 20.991098 24.646110
611   3 0.0000 27.986192 15.260234  3.857185
612   3 0.0000 30.856266 18.130773  9.054416
613   3 0.0000 33.726340 21.001311 14.251648
614   3 0.0000 36.596414 23.871850 19.448879
615   3 0.0000 39.466487 26.742388 24.646110
616   3 0.0000 27.985260 21.011524  3.857185
617   3 0.0000 30.855334 23.882063  9.054416
618   3 0.0000 33.725408 26.752601 14.251648
619   3 0.0000 36.595481 29.623139 19.448879
620   3 0.0000 39.465555 32.493678 24.646110
621   3 0.0000 27.984328 26.762814  3.857185
622   3 0.0000 30.854402 29.633352  9.054416
623   3 0.0000 33.724476 32.503891 14.251648
624   3 0.0000 36.594549 35.374429 19.448879
625   3 0.0000 39.464623 38.244968 24.646110
626   3 0.0000  4.751450  6.423784  1.274074
627   3 0.0000  7.621524  9.294322  6.471306
628   3 0.0000 10.491597 12.164861 11.668537
629   3 0.0000 13.361671 15.035399 16.865768
630   3 0.0000 16.231745 17.905937 22.062999
631   3 0.0000  4.750518 12.175074  1.274074
632   3 0.0000  7.620591 15.045612  6.471306
633   3 0.0000 10.490665 17.916150 11.668537
634   3 0.0000 13.360739 20.786689 16.865768
635   3 0.0000 16.230813 23.657227 22.062999
636   3 0.0000  4.749586 17.926363  1.274074
637   3 0.0000  7.619659 20.796902  6.471306
638   3 0.0000 10.489733 23.667440 11.668537
639   3 0.0000 13.359807 26.537979 16.865768
640   3 0.0000 16.229881 29.408517 22.062999
641   3 0.0000  4.748654 23.677653  1.274074
642   3 0.0000  7.618727 26.548192  6.471306
643   3 0.0000 10.488801 29.418730 11.668537
644   3 0.0000 13.358875 32.289268 16.865768
645   3 0.0000 16.228949 35.159807 22.062999
646   3 0.0000  4.747722 29.428943  1.274074
647   3 0.0000  7.617795 32.299481  6.471306
648   3 0.0000 10.487869 35.170020 11.668537
649   3 0.0000 13.357943 38.040558 16.865768
650   3 0.0000 16.228017 40.911097 22.062999
651   3 0.0000 10.502740  6.423784  1.274074
652   3 0.0000 13.372814  9.294322  6.471306
653   3 0.0000 16.242887 12.164861 11.668537
654   3 0.0000 19.112961 15.035399 16.865768
655   3 0.0000 21.983035 17.905937 22.062999
656   3 0.0000 10.501808 12.175074  1.274074
657   3 0.0000 13.371881 15.045612  6.471306
658   3 0.0000 16.241955 17.916150 11.668537
659   3 0.0000 19.112029 20.786689 16.865768
660   3 0.0000 21.982103 23.657227 22.062999
661   3 0.0000 10.500876 17.926363  1.274074
662   3 0.0000 13.370949 20.796902  6.471306
663   3 0.0000 16.241023 23.667440 11.668537
664   3 0.0000 19.111097 26.537979 16.865768
665   3 0.0000 21.981171 29.408517 22.062999
666   3 0.0000 10.499944 23.677653  1.274074
667   3 0.0000 13.370017 26.548192  6.471306
668   3 0.0000 16.240091 29.418730 11.668537
669   3 0.0000 19.110165 32.289268 16.865768
670   3 0.0000 21.980239 35.159807 22.062999
671   3 0.0000 10.499012 29.428943  1.274074
672   3 0.0000 13.369085 32.299481  6.471306
673   3 0.0000 16.239159 35.170020 11.668537
674   3 0.0000 19.109233 38.040558 16.865768
675   3 0.0000 21.979307 40.911097 22.062999
676   3 0.0000 16.254030  6.423784  1.274074
677   3 0.0000 19.124104  9.294322  6.471306
678   3 0.0000 21.994177 12.164861 11.668537
679   3 0.0000 24.864251 15.035399 16.865768
680   3 0.0000 27.734325 17.905937 22.062999
681   3 0.0000 16.253098 12.175074  1.274074
682   3 0.0000 19.123172 15.045612  6.471306
683   3 0.0000 21.993245 17.916150 11.668537
684   3 0.0000 24.863319 20.786689 16.865768
685   3 0.0000 27.733393 23.657227 22.062999
686   3 0.0000 16.252166 17.926363  1.274074
687   3 0.0000 19.122239 20.796902  6.471306
688   3 0.0000 21.992313 23.667440 11.668537
689   3 0.0000 24.862387 26.537979 16.865768
690   3 0.0000 27.732461 29.408517 22.062999
691   3 0.0000 16.251234 23.677653  1.274074
692   3 0.0000 19.121307 26.548192  6.471306
693   3 0.0000 21.991381 29.418730 11.668537
694   3 0.0000 24.861455 32.289268 16.865768
695   3 0.0000 27.731529 35.159807 22.062999
696   3 0.0000 16.250302 29.428943  1.274074
697   3 0.0000 19.120375 32.299481  6.471306
698   3 0.0000 21.990449 35.170020 11.668537
699   3 0.0000 24.860523 38.040558 16.865768
700   3 0.0000 27.730597 40.911097 22.062999
701   3 0.0000 22.005320  6.423784  1.274074
702   3 0.0000 24.875394  9.294322  6.471306
703   3 0.0000 27.745467 12.164861 11.668537
704   3 0.0000 30.615541 15.035399 16.865768
705   3 0.0000 33.485615 17.905937 22.062999
706   3 0.0000 22.004388 12.175074  1.274074
707   3 0.0000 24.874462 15.045612  6.471306
708   3 0.0000 27.744535 17.916150 11.668537
709   3 0.0000 30.614609 20.786689 16.865768
710   3 0.0000 33.484683 23.657227 22.062999
711   3 0.0000 22.003456 17.926363  1.274074
712   3 0.0000 24.873530 20.796902  6.471306
713   3 0.0000 27.743603 23.667440 11.668537
714   3 0.0000 30.613677 26.537979 16.865768
715   3 0.0000 33.483751 29.408517 22.062999
716   3 0.0000 22.002524 23.677653  1.274074
717   3 0.0000 24.872597 26.548192  6.471306
718   3 0.0000 27.742671 29.418730 11.668537
719   3 0.0000 30.612745 32.289268 16.865768
720   3 0.0000 33.482819 35.159807 22.062999
721   3 0.0000 22.001592 29.428943  1.274074
722   3 0.0000 24.871665 32.299481  6.471306
723   3 0.0000 27.741739 35.170020 11.668537
724   3 0.0000 30.611813 38.040558 16.865768
725   3 0.0000 33.481887 40.911097 22.062999
726   3 0.0000 27.756610  6.423784  1.274074
727   3 0.0000 30.626684  9.294322  6.471306
728   3 0.0000 33.496757 12.164861 11.668537
729   3 0.0000 36.366831 15.035399 16.865768
730   3 0.0000 39.236905 17.905937 22.062999
731   3 0.0000 27.755678 12.175074  1.274074
732   3 0.0000 30.625752 15.045612  6.471306
733   3 0.0000 33.495825 17.916150 11.668537
734   3 0.0000 36.365899 20.786689 16.865768
735   3 0.0000 39.235973 23.657227 22.062999
736   3 0.0000 27.754746 17.926363  1.274074
737   3 0.0000 30.624820 20.796902  6.471306
738   3 0.0000 33.494893 23.667440 11.668537
739   3 0.0000 36.364967 26.537979 16.865768
740   3 0.0000 39.235041 29.408517 22.062999
741   3 0.0000 27.753814 23.677653  1.274074
742   3 0.0000 30.623887 26.548192  6.471306
743   3 0.0000 33.493961 29.418730 11.668537
744   3 0.0000 36.364035 32.289268 16.865768
745   3 0.0000 39.234109 35.159807 22.062999
746   3 0.0000 27.752882 29.428943  1.274074
747   3 0.0000 30.622955 32.299481  6.471306
748   3 0.0000 33.493029 35.170020 11.668537
749   3 0.0000 36.363103 38.040558 16.865768
750   3 0.0000 39.233177 40.911097 22.062999
751   3 0.0000  2.321811  3.548235  1.258570
752   3 0.0000  5.191885  6.418774  6.455801
753   3 0.0000  8.061959  9.289312 11.653032
754   3 0.0000 10.932032 12.159851 16.850263
755   3 0.0000 13.802106 15.030389 22.047495
756   3 0.0000  2.320879  9.299525  1.258570
757   3 0.0000  5.190953 12.170063  6.455801
758   3 0.0000  8.061026 15.040602 11.653032
759   3 0.0000 10.931100 17.911140 16.850263
760   3 0.0000 13.801174 20.781679 22.047495
761   3 0.0000  2.319947 15.050815  1.258570
762   3 0.0000  5.190021 17.921353  6.455801
763   3 0.0000  8.060094 20.791892 11.653032
764   3 0.0000 10.930168 23.662430 16.850263
765   3 0.0000 13.800242 26.532968 22.047495
766   3 0.0000  2.319015 20.802105  1.258570
767   3 0.0000  5.189089 23.672643  6.455801
768   3 0.0000  8.059162 26.543181 11.653032
769   3 0.0000 10.929236 29.413720 16.850263
770   3 0.0000 13.799310 32.284258 22.047495
771   3 0.0000  2.318083 26.553394  1.258570
772   3 0.0000  5.188157 29.423933  6.455801
773   3 0.0000  8.058230 32.294471 11.653032
774   3 0.0000 10.928304 35.165010 16.850263
775   3 0.0000 13.798378 38.035548 22.047495
776   3 0.0000  8.073101  3.548235  1.258570
777   3 0.0000 10.943175  6.418774  6.455801
778   3 0.0000 13.813249  9.289312 11.653032
779   3 0.0000 16.683322 12.159851 16.850263
780   3 0.0000 19.553396 15.030389 22.047495
781   3 0.0000  8.072169  9.299525  1.258570
782   3 0.0000 10.942243 12.170063  6.455801
783   3 0.0000 13.812316 15.040602 11.653032
784   3 0.0000 16.682390 17.911140 16.850263
785   3 0.0000 19.552464 20.781679 22.047495
786   3 0.0000  8.071237 15.050815  1.258570
787   3 0.0000 10.941311 17.921353  6.455801
788   3 0.0000 13.811384 20.791892 11.653032
789   3 0.0000 16.681458 23.662430 16.850263
790   3 0.0000 19.551532 26.532968 22.047495
791   3 0.0000  8.070305 20.802105  1.258570
792   3 0.0000 10.940379 23.672643  6.455801
793   3 0.0000 13.810452 26.543181 11.653032
794   3 0.0000 16.680526 29.413720 16.850263
795   3 0.0000 19.550600 32.284258 22.047495
796   3 0.0000  8.069373 26.553394  1.258570
797   3 0.0000 10.939447 29.423933  6.455801
798   3 0.0000 13.809520 32.294471 11.653032
799   3 0.0000 16.679594 35.165010 16.850263
800   3 0.0000 19.549668 38.035548 22.047495
801   3 0.0000 13.824391  3.548235  1.258570
802   3 0.0000 16.694465  6.418774  6.455801
803   3 0.0000 19.564539  9.289312 11.653032
804   3 0.0000 22.434612 12.159851 16.850263
805   3 0.0000 25.304686 15.030389 22.047495
806   3 0.0000 13.823459  9.299525  1.258570
807   3 0.0000 16.693533 12.170063  6.455801
808   3 0.0000 19.563607 15.040602 11.653032
809   3 0.0000 22.433680 17.911140 16.850263
810   3 0.0000 25.303754 20.781679 22.047495
811   3 0.0000 13.822527 15.050815  1.258570
812   3 0.0000 16.692601 17.921353  6.455801
813   3 0.0000 19.562674 20.791892 11.653032
814   3 0.0000 22.432748 23.662430 16.850263
815   3 0.0000 25.302822 26.532968 22.047495
816   3 0.0000 13.821595 20.802105  1.258570
817   3 0.0000 16.691669 23.672643  6.455801
818   3 0.0000 19.561742 26.543181 11.653032
819   3 0.0000 22.431816 29.413720 16.850263
820   3 0.0000 25.301890 32.284258 22.047495
821   3 0.0000 13.820663 26.553394  1.258570
822   3 0.0000 16.690737 29.423933  6.455801
823   3 0.0000 19.560810 32.294471 11.653032
824   3 0.0000 22.430884 35.165010 16.850263
825   3 0.0000 25.300958 38.035548 22.047495
826   3 0.0000 19.575681  3.548235  1.258570
827   3 0.0000 22.445755  6.418774  6.455801
828   3 0.0000 25.315829  9.289312 11.653032
829   3 0.0000 28.185902 12.159851 16.850263
830   3 0.0000 31.055976 15.030389 22.047495
831   3 0.0000 19.574749  9.299525  1.258570
832   3 0.0000 22.444823 12.170063  6.455801
833   3 0.0000 25.314897 15.040602 11.653032
834   3 0.0000 28.184970 17.911140 16.850263
835   3 0.0000 31.055044 20.781679 22.047495
836   3 0.0000 19.573817 15.050815  1.258570
837   3 0.0000 22.443891 17.921353  6.455801
838   3 0.0000 25.313965 20.791892 11.653032
839   3 0.0000 28.184038 23.662430 16.850263
840   3 0.0000 31.054112 26.532968 22.047495
841   3 0.0000 19.572885 20.802105  1.258570
842   3 0.0000 22.442959 23.672643  6.455801
843   3 0.0000 25.313032 26.543181 11.653032
844   3 0.0000 28.183106 29.413720 16.850263
845   3 0.0000 31.053180 32.284258 22.047495
846   3 0.0000 19.571953 26.553394  1.258570
847   3 0.0000 22.442027 29.423933  6.455801
848   3 0.0000 25.312100 32.294471 11.653032
849   3 0.0000 28.182174 35.165010 16.850263
850   3 0.0000 31.052248 38.035548 22.047495
851   3 0.0000 25.326971  3.548235  1.258570
852   3 0.0000 28.197045  6.418774  6.455801
853   3 0.0000 31.067119  9.289312 11.653032
854   3 0.0000 33.937192 12.159851 16.850263
855   3 0.0000 36.807266 15.030389 22.047495
856   3 0.0000 25.326039  9.299525  1.258570
857   3 0.0000 28.196113 12.170063  6.455801
858   3 0.0000 31.066187 15.040602 11.653032
859   3 0.0000 33.936260 17.911140 16.850263
860   3 0.0000 36.806334 20.781679 22.047495
861   3 0.0000 25.325107 15.050815  1.258570
862   3 0.0000 28.195181 17.921353  6.455801
863   3 0.0000 31.065255 20.791892 11.653032
864   3 0.0000 33.935328 23.662430 16.850263
865   3 0.0000 36.805402 26.532968 22.047495
866   3 0.0000 25.324175 20.802105  1.258570
867   3 0.0000 28.194249 23.672643  6.455801
868   3 0.0000 31.064322 26.543181 11.653032
869   3 0.0000 33.934396 29.413720 16.850263
870   3 0.0000 36.804470 32.284258 22.047495
871   3 0.0000 25.323243 26.553394  1.258570
872   3 0.0000 28.193317 29.423933  6.455801
873   3 0.0000 31.063390 32.294471 11.653032
874   3 0.0000 33.933464 35.165010 16.850263
875   3 0.0000 36.803538 38.035548 22.047495
876   3 0.0000  7.858051  6.187760  3.872690
877   3 0.0000 10.728125  9.058298  9.069921
878   3 0.0000 13.598199 11.928836 14.267152
879   3 0.0000 16.468272 14.799375 19.464384
880   3 0.0000 19.338346 17.669913 24.661615
881   3 0.0000  7.857119 11.939049  3.872690
882   3 0.0000 10.727193 14.809588  9.069921
883   3 0.0000 13.597267 17.680126 14.267152
884   3 0.0000 16.467340 20.550665 19.464384
885   3 0.0000 19.337414 23.421203 24.661615
886   3 0.0000  7.856187 17.690339  3.872690
887   3 0.0000 10.726261 20.560878  9.069921
888   3 0.0000 13.596335 23.431416 14.267152
889   3 0.0000 16.466408 26.301954 19.464384
890   3 0.0000 19.336482 29.172493 24.661615
891   3 0.0000  7.855255 23.441629  3.872690
892   3 0.0000 10.725329 26.312167  9.069921
893   3 0.0000 13.595402 29.182706 14.267152
894   3 0.0000 16.465476 32.053244 19.464384
895   3 0.0000 19.335550 34.923783 24.661615
896   3 0.0000  7.854323 29.192919  3.872690
897   3 0.0000 10.724397 32.063457  9.069921
898   3 0.0000 13.594470 34.933995 14.267152
899   3 0.0000 16.464544 37.804534 19.464384
900   3 0.0000 19.334618 40.675072 24.661615
901   3 0.0000 13.609341  6.187760  3.872690
902   3 0.0000 16.479415  9.058298  9.069921
903   3 0.0000 19.349489 11.928836 14.267152
904   3 0.0000 22.219562 14.799375 19.464384
905   3 0.0000 25.089636 17.669913 24.661615
906   3 0.0000 13.608409 11.939049  3.872690
907   3 0.0000 16.478483 14.809588  9.069921
908   3 0.0000 19.348557 17.680126 14.267152
909   3 0.0000 22.218630 20.550665 19.464384
910   3 0.0000 25.088704 23.421203 24.661615
911   3 0.0000 13.607477 17.690339  3.872690
912   3 0.0000 16.477551 20.560878  9.069921
913   3 0.0000 19.347625 23.431416 14.267152
914   3 0.0000 22.217698 26.301954 19.464384
915   3 0.0000 25.087772 29.172493 24.661615
916   3 0.0000 13.606545 23.441629  3.872690
917   3 0.0000 16.476619 26.312167  9.069921
918   3 0.0000 19.346692 29.182706 14.267152
919   3 0.0000 22.216766 32.053244 19.464384
920   3 0.0000 25.086840 34.923783 24.661615
921   3 0.0000 13.605613 29.192919  3.872690
922   3 0.0000 16.475687 32.063457  9.069921
923   3 0.0000 19.345760 34.933995 14.267152
924   3 0.0000 22.215834 37.804534 19.464384
925   3 0.0000 25.085908 40.675072 24.661615
926   3 0.0000 19.360631  6.187760  3.872690
927   3 0.0000 22.230705  9.058298  9.069921
928   3 0.0000 25.100779 11.928836 14.267152
929   3 0.0000 27.970852 14.799375 19.464384
930   3 0.0000 30.840926 17.669913 24.661615
931   3 0.0000 19.359699 11.939049  3.872690
932   3 0.0000 22.229773 14.809588  9.069921
933   3 0.0000 25.099847 17.680126 14.267152
934   3 0.0000 27.969920 20.550665 19.464384
935   3 0.0000 30.839994 23.421203 24.661615
936   3 0.0000 19.358767 17.690339  3.872690
937   3 0.0000 22.228841 20.560878  9.069921
938   3 0.0000 25.098915 23.431416 14.267152
939   3 0.0000 27.968988 26.301954 19.464384
940   3 0.0000 30.839062 29.172493 24.661615
941   3 0.0000 19.357835 23.441629  3.872690
942   3 0.0000 22.227909 26.312167  9.069921
943   3 0.0000 25.097983 29.182706 14.267152
944   3 0.0000 27.968056 32.053244 19.464384
945   3 0.0000 30.838130 34.923783 24.661615
946   3 0.0000 19.356903 29.192919  3.872690
947   3 0.0000 22.226977 32.063457  9.069921
948   3 0.0000 25.097050 34.933995 14.267152
949   3 0.0000 27.967124 37.804534 19.464384
950   3 0.0000 30.837198 40.675072 24.661615
951   3 0.0000 25.111921  6.187760  3.872690
952   3 0.0000 27.981995  9.058298  9.069921
953   3 0.0000 30.852069 11.928836 14.267152
954   3 0.0000 33.722142 14.799375 19.464384
955   3 0.0000 36.592216 17.669913 24.661615
956   3 0.0000 25.110989 11.939049  3.872690
957   3 0.0000 27.981063 14.809588  9.069921
958   3 0.0000 30.851137 17.680126 14.267152
959   3 0.0000 33.721210 20.550665 19.464384
960   3 0.0000 36.591284 23.421203 24.661615
961   3 0.0000 25.110057 17.690339  3.872690
962   3 0.0000 27.980131 20.560878  9.069921
963   3 0.0000 30.850205 23.431416 14.267152
964   3 0.0000 33.720278 26.301954 19.464384
965   3 0.0000 36.590352 29.172493 24.661615
966   3 0.0000 25.109125 23.441629  3.872690
967   3 0.0000 27.979199 26.312167  9.069921
968   3 0.0000 30.849273 29.182706 14.267152
969   3 0.0000 33.719346 32.053244 19.464384
970   3 0.0000 36.589420 34.923783 24.661615
971   3 0.0000 25.108193 29.192919  3.872690
972   3 0.0000 27.978267 32.063457  9.069921
973   3 0.0000 30.848341 34.933995 14.267152
974   3 0.0000 33.718414 37.804534 19.464384
975   3 0.0000 36.588488 40.675072 24.661615
976   3 0.0000 30.863211  6.187760  3.872690
977   3 0.0000 33.733285  9.058298  9.069921
978   3 0.0000 36.603359 11.928836 14.267152
979   3 0.0000 39.473433 14.799375 19.464384
980   3 0.0000 42.343506 17.669913 24.661615
981   3 0.0000 30.862279 11.939049  3.872690
982   3 0.0000 33.732353 14.809588  9.069921
983   3 0.0000 36.602427 17.680126 14.267152
984   3 0.0000 39.472500 20.550665 19.464384
985   3 0.0000 42.342574 23.421203 24.661615
986   3 0.0000 30.861347 17.690339  3.872690
987   3 0.0000 33.731421 20.560878  9.069921
988   3 0.0000 36.601495 23.431416 14.267152
989   3 0.0000 39.471568 26.301954 19.464384
990   3 0.0000 42.341642 29.172493 24.661615
991   3 0.0000 30.860415 23.441629  3.872690
992   3 0.0000 33.730489 26.312167  9.069921
993   3 0.0000 36.600563 29.182706 14.267152
994   3 0.0000 39.470636 32.053244 19.464384
995   3 0.0000 42.340710 34.923783 24.661615
996   3 0.0000 30.859483 29.192919  3.872690
997   3 0.0000 33.729557 32.063457  9.069921
998   3 0.0000 36.599631 34.933995 14.267152
999   3 0.0000 39.469704 37.804534 19.464384
1000  3 0.0000 42.339778 40.675072 24.661615

