Generated by pymatgen.io.lammps.data.LammpsData

1250  atoms

   2  atom types

0.000000 25.889774  xlo xhi
0.000000 21.282444  ylo yhi
0.000000 19.832212  zlo zhi
14.742382 14.742382 7.721805  xy xz yz

Masses

1  26.981539
2  15.999400

Atoms

1     1 0.0000  7.175471  3.758388  2.569870
2     1 0.0000 10.123947  5.302749  6.536312
3     1 0.0000 13.072424  6.847110 10.502755
4     1 0.0000 16.020900  8.391471 14.469197
5     1 0.0000 18.969376  9.935832 18.435639
6     1 0.0000 10.123947  8.014877  2.569870
7     1 0.0000 13.072424  9.559238  6.536312
8     1 0.0000 16.020900 11.103599 10.502755
9     1 0.0000 18.969376 12.647960 14.469197
10    1 0.0000 21.917852 14.192321 18.435639
11    1 0.0000 13.072424 12.271366  2.569870
12    1 0.0000 16.020900 13.815727  6.536312
13    1 0.0000 18.969376 15.360088 10.502755
14    1 0.0000 21.917853 16.904449 14.469197
15    1 0.0000 24.866329 18.448810 18.435639
16    1 0.0000 16.020900 16.527855  2.569870
17    1 0.0000 18.969376 18.072216  6.536312
18    1 0.0000 21.917853 19.616577 10.502755
19    1 0.0000 24.866329 21.160938 14.469197
20    1 0.0000 27.814805 22.705299 18.435639
21    1 0.0000 18.969376 20.784343  2.569870
22    1 0.0000 21.917853 22.328704  6.536312
23    1 0.0000 24.866329 23.873066 10.502755
24    1 0.0000 27.814805 25.417427 14.469197
25    1 0.0000 30.763282 26.961788 18.435639
26    1 0.0000 12.353426  3.758388  2.569870
27    1 0.0000 15.301902  5.302749  6.536312
28    1 0.0000 18.250378  6.847110 10.502755
29    1 0.0000 21.198855  8.391471 14.469197
30    1 0.0000 24.147331  9.935832 18.435639
31    1 0.0000 15.301902  8.014877  2.569870
32    1 0.0000 18.250378  9.559238  6.536312
33    1 0.0000 21.198855 11.103599 10.502755
34    1 0.0000 24.147331 12.647960 14.469197
35    1 0.0000 27.095807 14.192321 18.435639
36    1 0.0000 18.250378 12.271366  2.569870
37    1 0.0000 21.198855 13.815727  6.536312
38    1 0.0000 24.147331 15.360088 10.502755
39    1 0.0000 27.095807 16.904449 14.469197
40    1 0.0000 30.044284 18.448810 18.435639
41    1 0.0000 21.198855 16.527855  2.569870
42    1 0.0000 24.147331 18.072216  6.536312
43    1 0.0000 27.095807 19.616577 10.502755
44    1 0.0000 30.044284 21.160938 14.469197
45    1 0.0000 32.992760 22.705299 18.435639
46    1 0.0000 24.147331 20.784343  2.569870
47    1 0.0000 27.095807 22.328704  6.536312
48    1 0.0000 30.044284 23.873066 10.502755
49    1 0.0000 32.992760 25.417427 14.469197
50    1 0.0000 35.941236 26.961788 18.435639
51    1 0.0000 17.531380  3.758388  2.569870
52    1 0.0000 20.479857  5.302749  6.536312
53    1 0.0000 23.428333  6.847110 10.502755
54    1 0.0000 26.376809  8.391471 14.469197
55    1 0.0000 29.325286  9.935832 18.435639
56    1 0.0000 20.479857  8.014877  2.569870
57    1 0.0000 23.428333  9.559238  6.536312
58    1 0.0000 26.376809 11.103599 10.502755
59    1 0.0000 29.325286 12.647960 14.469197
60    1 0.0000 32.273762 14.192321 18.435639
61    1 0.0000 23.428333 12.271366  2.569870
62    1 0.0000 26.376809 13.815727  6.536312
63    1 0.0000 29.325286 15.360088 10.502755
64    1 0.0000 32.273762 16.904449 14.469197
65    1 0.0000 35.222238 18.448810 18.435639
66    1 0.0000 26.376810 16.527855  2.569870
67    1 0.0000 29.325286 18.072216  6.536312
68    1 0.0000 32.273762 19.616577 10.502755
69    1 0.0000 35.222238 21.160938 14.469197
70    1 0.0000 38.170715 22.705299 18.435639
71    1 0.0000 29.325286 20.784343  2.569870
72    1 0.0000 32.273762 22.328704  6.536312
73    1 0.0000 35.222238 23.873066 10.502755
74    1 0.0000 38.170715 25.417427 14.469197
75    1 0.0000 41.119191 26.961788 18.435639
76    1 0.0000 22.709335  3.758388  2.569870
77    1 0.0000 25.657812  5.302749  6.536312
78    1 0.0000 28.606288  6.847110 10.502755
79    1 0.0000 31.554764  8.391471 14.469197
80    1 0.0000 34.503240  9.935832 18.435639
81    1 0.0000 25.657812  8.014877  2.569870
82    1 0.0000 28.606288  9.559238  6.536312
83    1 0.0000 31.554764 11.103599 10.502755
84    1 0.0000 34.503240 12.647960 14.469197
85    1 0.0000 37.451717 14.192321 18.435639
86    1 0.0000 28.606288 12.271366  2.569870
87    1 0.0000 31.554764 13.815727  6.536312
88    1 0.0000 34.503241 15.360088 10.502755
89    1 0.0000 37.451717 16.904449 14.469197
90    1 0.0000 40.400193 18.448810 18.435639
91    1 0.0000 31.554764 16.527855  2.569870
92    1 0.0000 34.503241 18.072216  6.536312
93    1 0.0000 37.451717 19.616577 10.502755
94    1 0.0000 40.400193 21.160938 14.469197
95    1 0.0000 43.348669 22.705299 18.435639
96    1 0.0000 34.503241 20.784343  2.569870
97    1 0.0000 37.451717 22.328704  6.536312
98    1 0.0000 40.400193 23.873066 10.502755
99    1 0.0000 43.348670 25.417427 14.469197
100   1 0.0000 46.297146 26.961788 18.435639
101   1 0.0000 27.887290  3.758388  2.569870
102   1 0.0000 30.835766  5.302749  6.536312
103   1 0.0000 33.784243  6.847110 10.502755
104   1 0.0000 36.732719  8.391471 14.469197
105   1 0.0000 39.681195  9.935832 18.435639
106   1 0.0000 30.835766  8.014877  2.569870
107   1 0.0000 33.784243  9.559238  6.536312
108   1 0.0000 36.732719 11.103599 10.502755
109   1 0.0000 39.681195 12.647960 14.469197
110   1 0.0000 42.629672 14.192321 18.435639
111   1 0.0000 33.784243 12.271366  2.569870
112   1 0.0000 36.732719 13.815727  6.536312
113   1 0.0000 39.681195 15.360088 10.502755
114   1 0.0000 42.629672 16.904449 14.469197
115   1 0.0000 45.578148 18.448810 18.435639
116   1 0.0000 36.732719 16.527855  2.569870
117   1 0.0000 39.681195 18.072216  6.536312
118   1 0.0000 42.629672 19.616577 10.502755
119   1 0.0000 45.578148 21.160938 14.469197
120   1 0.0000 48.526624 22.705299 18.435639
121   1 0.0000 39.681195 20.784343  2.569870
122   1 0.0000 42.629672 22.328704  6.536312
123   1 0.0000 45.578148 23.873066 10.502755
124   1 0.0000 48.526624 25.417427 14.469197
125   1 0.0000 51.475101 26.961788 18.435639
126   1 0.0000  9.436895  4.942887  3.379794
127   1 0.0000 12.385372  6.487248  7.346236
128   1 0.0000 15.333848  8.031609 11.312678
129   1 0.0000 18.282324  9.575970 15.279121
130   1 0.0000 21.230801 11.120331 19.245563
131   1 0.0000 12.385372  9.199376  3.379794
132   1 0.0000 15.333848 10.743737  7.346236
133   1 0.0000 18.282324 12.288098 11.312678
134   1 0.0000 21.230801 13.832459 15.279121
135   1 0.0000 24.179277 15.376820 19.245563
136   1 0.0000 15.333848 13.455864  3.379794
137   1 0.0000 18.282324 15.000226  7.346236
138   1 0.0000 21.230801 16.544587 11.312678
139   1 0.0000 24.179277 18.088948 15.279121
140   1 0.0000 27.127753 19.633309 19.245563
141   1 0.0000 18.282324 17.712353  3.379794
142   1 0.0000 21.230801 19.256714  7.346236
143   1 0.0000 24.179277 20.801075 11.312678
144   1 0.0000 27.127753 22.345437 15.279121
145   1 0.0000 30.076230 23.889798 19.245563
146   1 0.0000 21.230801 21.968842  3.379794
147   1 0.0000 24.179277 23.513203  7.346236
148   1 0.0000 27.127753 25.057564 11.312678
149   1 0.0000 30.076230 26.601925 15.279121
150   1 0.0000 33.024706 28.146286 19.245563
151   1 0.0000 14.614850  4.942887  3.379794
152   1 0.0000 17.563326  6.487248  7.346236
153   1 0.0000 20.511803  8.031609 11.312678
154   1 0.0000 23.460279  9.575970 15.279121
155   1 0.0000 26.408755 11.120331 19.245563
156   1 0.0000 17.563327  9.199376  3.379794
157   1 0.0000 20.511803 10.743737  7.346236
158   1 0.0000 23.460279 12.288098 11.312678
159   1 0.0000 26.408755 13.832459 15.279121
160   1 0.0000 29.357232 15.376820 19.245563
161   1 0.0000 20.511803 13.455864  3.379794
162   1 0.0000 23.460279 15.000226  7.346236
163   1 0.0000 26.408755 16.544587 11.312678
164   1 0.0000 29.357232 18.088948 15.279121
165   1 0.0000 32.305708 19.633309 19.245563
166   1 0.0000 23.460279 17.712353  3.379794
167   1 0.0000 26.408756 19.256714  7.346236
168   1 0.0000 29.357232 20.801075 11.312678
169   1 0.0000 32.305708 22.345437 15.279121
170   1 0.0000 35.254184 23.889798 19.245563
171   1 0.0000 26.408756 21.968842  3.379794
172   1 0.0000 29.357232 23.513203  7.346236
173   1 0.0000 32.305708 25.057564 11.312678
174   1 0.0000 35.254184 26.601925 15.279121
175   1 0.0000 38.202661 28.146286 19.245563
176   1 0.0000 19.792805  4.942887  3.379794
177   1 0.0000 22.741281  6.487248  7.346236
178   1 0.0000 25.689758  8.031609 11.312678
179   1 0.0000 28.638234  9.575970 15.279121
180   1 0.0000 31.586710 11.120331 19.245563
181   1 0.0000 22.741281  9.199376  3.379794
182   1 0.0000 25.689758 10.743737  7.346236
183   1 0.0000 28.638234 12.288098 11.312678
184   1 0.0000 31.586710 13.832459 15.279121
185   1 0.0000 34.535186 15.376820 19.245563
186   1 0.0000 25.689758 13.455864  3.379794
187   1 0.0000 28.638234 15.000226  7.346236
188   1 0.0000 31.586710 16.544587 11.312678
189   1 0.0000 34.535187 18.088948 15.279121
190   1 0.0000 37.483663 19.633309 19.245563
191   1 0.0000 28.638234 17.712353  3.379794
192   1 0.0000 31.586710 19.256714  7.346236
193   1 0.0000 34.535187 20.801075 11.312678
194   1 0.0000 37.483663 22.345437 15.279121
195   1 0.0000 40.432139 23.889798 19.245563
196   1 0.0000 31.586710 21.968842  3.379794
197   1 0.0000 34.535187 23.513203  7.346236
198   1 0.0000 37.483663 25.057564 11.312678
199   1 0.0000 40.432139 26.601925 15.279121
200   1 0.0000 43.380616 28.146286 19.245563
201   1 0.0000 24.970760  4.942887  3.379794
202   1 0.0000 27.919236  6.487248  7.346236
203   1 0.0000 30.867712  8.031609 11.312678
204   1 0.0000 33.816189  9.575970 15.279121
205   1 0.0000 36.764665 11.120331 19.245563
206   1 0.0000 27.919236  9.199376  3.379794
207   1 0.0000 30.867712 10.743737  7.346236
208   1 0.0000 33.816189 12.288098 11.312678
209   1 0.0000 36.764665 13.832459 15.279121
210   1 0.0000 39.713141 15.376820 19.245563
211   1 0.0000 30.867712 13.455864  3.379794
212   1 0.0000 33.816189 15.000226  7.346236
213   1 0.0000 36.764665 16.544587 11.312678
214   1 0.0000 39.713141 18.088948 15.279121
215   1 0.0000 42.661618 19.633309 19.245563
216   1 0.0000 33.816189 17.712353  3.379794
217   1 0.0000 36.764665 19.256714  7.346236
218   1 0.0000 39.713141 20.801075 11.312678
219   1 0.0000 42.661618 22.345437 15.279121
220   1 0.0000 45.610094 23.889798 19.245563
221   1 0.0000 36.764665 21.968842  3.379794
222   1 0.0000 39.713141 23.513203  7.346236
223   1 0.0000 42.661618 25.057564 11.312678
224   1 0.0000 45.610094 26.601925 15.279121
225   1 0.0000 48.558570 28.146286 19.245563
226   1 0.0000 30.148714  4.942887  3.379794
227   1 0.0000 33.097191  6.487248  7.346236
228   1 0.0000 36.045667  8.031609 11.312678
229   1 0.0000 38.994143  9.575970 15.279121
230   1 0.0000 41.942620 11.120331 19.245563
231   1 0.0000 33.097191  9.199376  3.379794
232   1 0.0000 36.045667 10.743737  7.346236
233   1 0.0000 38.994143 12.288098 11.312678
234   1 0.0000 41.942620 13.832459 15.279121
235   1 0.0000 44.891096 15.376820 19.245563
236   1 0.0000 36.045667 13.455864  3.379794
237   1 0.0000 38.994143 15.000226  7.346236
238   1 0.0000 41.942620 16.544587 11.312678
239   1 0.0000 44.891096 18.088948 15.279121
240   1 0.0000 47.839572 19.633309 19.245563
241   1 0.0000 38.994143 17.712353  3.379794
242   1 0.0000 41.942620 19.256714  7.346236
243   1 0.0000 44.891096 20.801075 11.312678
244   1 0.0000 47.839572 22.345437 15.279121
245   1 0.0000 50.788049 23.889798 19.245563
246   1 0.0000 41.942620 21.968842  3.379794
247   1 0.0000 44.891096 23.513203  7.346236
248   1 0.0000 47.839572 25.057564 11.312678
249   1 0.0000 50.788049 26.601925 15.279121
250   1 0.0000 53.736525 28.146286 19.245563
251   1 0.0000  1.638017  0.857963  0.586649
252   1 0.0000  4.586494  2.402324  4.553091
253   1 0.0000  7.534970  3.946685  8.519533
254   1 0.0000 10.483446  5.491046 12.485976
255   1 0.0000 13.431922  7.035407 16.452418
256   1 0.0000  4.586494  5.114452  0.586649
257   1 0.0000  7.534970  6.658813  4.553091
258   1 0.0000 10.483446  8.203174  8.519533
259   1 0.0000 13.431922  9.747535 12.485976
260   1 0.0000 16.380399 11.291896 16.452418
261   1 0.0000  7.534970  9.370941  0.586649
262   1 0.0000 10.483446 10.915302  4.553091
263   1 0.0000 13.431923 12.459663  8.519533
264   1 0.0000 16.380399 14.004024 12.485976
265   1 0.0000 19.328875 15.548385 16.452418
266   1 0.0000 10.483446 13.627430  0.586649
267   1 0.0000 13.431923 15.171791  4.553091
268   1 0.0000 16.380399 16.716152  8.519533
269   1 0.0000 19.328875 18.260513 12.485976
270   1 0.0000 22.277351 19.804874 16.452418
271   1 0.0000 13.431923 17.883918  0.586649
272   1 0.0000 16.380399 19.428280  4.553091
273   1 0.0000 19.328875 20.972641  8.519533
274   1 0.0000 22.277352 22.517002 12.485976
275   1 0.0000 25.225828 24.061363 16.452418
276   1 0.0000  6.815972  0.857963  0.586649
277   1 0.0000  9.764448  2.402324  4.553091
278   1 0.0000 12.712925  3.946685  8.519533
279   1 0.0000 15.661401  5.491046 12.485976
280   1 0.0000 18.609877  7.035407 16.452418
281   1 0.0000  9.764448  5.114452  0.586649
282   1 0.0000 12.712925  6.658813  4.553091
283   1 0.0000 15.661401  8.203174  8.519533
284   1 0.0000 18.609877  9.747535 12.485976
285   1 0.0000 21.558354 11.291896 16.452418
286   1 0.0000 12.712925  9.370941  0.586649
287   1 0.0000 15.661401 10.915302  4.553091
288   1 0.0000 18.609877 12.459663  8.519533
289   1 0.0000 21.558354 14.004024 12.485976
290   1 0.0000 24.506830 15.548385 16.452418
291   1 0.0000 15.661401 13.627430  0.586649
292   1 0.0000 18.609877 15.171791  4.553091
293   1 0.0000 21.558354 16.716152  8.519533
294   1 0.0000 24.506830 18.260513 12.485976
295   1 0.0000 27.455306 19.804874 16.452418
296   1 0.0000 18.609877 17.883918  0.586649
297   1 0.0000 21.558354 19.428280  4.553091
298   1 0.0000 24.506830 20.972641  8.519533
299   1 0.0000 27.455306 22.517002 12.485976
300   1 0.0000 30.403783 24.061363 16.452418
301   1 0.0000 11.993927  0.857963  0.586649
302   1 0.0000 14.942403  2.402324  4.553091
303   1 0.0000 17.890879  3.946685  8.519533
304   1 0.0000 20.839356  5.491046 12.485976
305   1 0.0000 23.787832  7.035407 16.452418
306   1 0.0000 14.942403  5.114452  0.586649
307   1 0.0000 17.890879  6.658813  4.553091
308   1 0.0000 20.839356  8.203174  8.519533
309   1 0.0000 23.787832  9.747535 12.485976
310   1 0.0000 26.736308 11.291896 16.452418
311   1 0.0000 17.890879  9.370941  0.586649
312   1 0.0000 20.839356 10.915302  4.553091
313   1 0.0000 23.787832 12.459663  8.519533
314   1 0.0000 26.736308 14.004024 12.485976
315   1 0.0000 29.684785 15.548385 16.452418
316   1 0.0000 20.839356 13.627430  0.586649
317   1 0.0000 23.787832 15.171791  4.553091
318   1 0.0000 26.736308 16.716152  8.519533
319   1 0.0000 29.684785 18.260513 12.485976
320   1 0.0000 32.633261 19.804874 16.452418
321   1 0.0000 23.787832 17.883918  0.586649
322   1 0.0000 26.736308 19.428280  4.553091
323   1 0.0000 29.684785 20.972641  8.519533
324   1 0.0000 32.633261 22.517002 12.485976
325   1 0.0000 35.581737 24.061363 16.452418
326   1 0.0000 17.171881  0.857963  0.586649
327   1 0.0000 20.120358  2.402324  4.553091
328   1 0.0000 23.068834  3.946685  8.519533
329   1 0.0000 26.017310  5.491046 12.485976
330   1 0.0000 28.965787  7.035407 16.452418
331   1 0.0000 20.120358  5.114452  0.586649
332   1 0.0000 23.068834  6.658813  4.553091
333   1 0.0000 26.017310  8.203174  8.519533
334   1 0.0000 28.965787  9.747535 12.485976
335   1 0.0000 31.914263 11.291896 16.452418
336   1 0.0000 23.068834  9.370941  0.586649
337   1 0.0000 26.017311 10.915302  4.553091
338   1 0.0000 28.965787 12.459663  8.519533
339   1 0.0000 31.914263 14.004024 12.485976
340   1 0.0000 34.862739 15.548385 16.452418
341   1 0.0000 26.017311 13.627430  0.586649
342   1 0.0000 28.965787 15.171791  4.553091
343   1 0.0000 31.914263 16.716152  8.519533
344   1 0.0000 34.862739 18.260513 12.485976
345   1 0.0000 37.811216 19.804874 16.452418
346   1 0.0000 28.965787 17.883918  0.586649
347   1 0.0000 31.914263 19.428280  4.553091
348   1 0.0000 34.862740 20.972641  8.519533
349   1 0.0000 37.811216 22.517002 12.485976
350   1 0.0000 40.759692 24.061363 16.452418
351   1 0.0000 22.349836  0.857963  0.586649
352   1 0.0000 25.298313  2.402324  4.553091
353   1 0.0000 28.246789  3.946685  8.519533
354   1 0.0000 31.195265  5.491046 12.485976
355   1 0.0000 34.143741  7.035407 16.452418
356   1 0.0000 25.298313  5.114452  0.586649
357   1 0.0000 28.246789  6.658813  4.553091
358   1 0.0000 31.195265  8.203174  8.519533
359   1 0.0000 34.143742  9.747535 12.485976
360   1 0.0000 37.092218 11.291896 16.452418
361   1 0.0000 28.246789  9.370941  0.586649
362   1 0.0000 31.195265 10.915302  4.553091
363   1 0.0000 34.143742 12.459663  8.519533
364   1 0.0000 37.092218 14.004024 12.485976
365   1 0.0000 40.040694 15.548385 16.452418
366   1 0.0000 31.195265 13.627430  0.586649
367   1 0.0000 34.143742 15.171791  4.553091
368   1 0.0000 37.092218 16.716152  8.519533
369   1 0.0000 40.040694 18.260513 12.485976
370   1 0.0000 42.989171 19.804874 16.452418
371   1 0.0000 34.143742 17.883918  0.586649
372   1 0.0000 37.092218 19.428280  4.553091
373   1 0.0000 40.040694 20.972641  8.519533
374   1 0.0000 42.989171 22.517002 12.485976
375   1 0.0000 45.937647 24.061363 16.452418
376   1 0.0000  3.899436  2.042456  1.396568
377   1 0.0000  6.847912  3.586817  5.363011
378   1 0.0000  9.796388  5.131178  9.329453
379   1 0.0000 12.744865  6.675539 13.295896
380   1 0.0000 15.693341  8.219900 17.262338
381   1 0.0000  6.847912  6.298945  1.396568
382   1 0.0000  9.796388  7.843306  5.363011
383   1 0.0000 12.744865  9.387667  9.329453
384   1 0.0000 15.693341 10.932028 13.295896
385   1 0.0000 18.641817 12.476389 17.262338
386   1 0.0000  9.796388 10.555434  1.396568
387   1 0.0000 12.744865 12.099795  5.363011
388   1 0.0000 15.693341 13.644156  9.329453
389   1 0.0000 18.641817 15.188517 13.295896
390   1 0.0000 21.590294 16.732878 17.262338
391   1 0.0000 12.744865 14.811923  1.396568
392   1 0.0000 15.693341 16.356284  5.363011
393   1 0.0000 18.641817 17.900645  9.329453
394   1 0.0000 21.590294 19.445006 13.295896
395   1 0.0000 24.538770 20.989367 17.262338
396   1 0.0000 15.693341 19.068411  1.396568
397   1 0.0000 18.641818 20.612772  5.363011
398   1 0.0000 21.590294 22.157134  9.329453
399   1 0.0000 24.538770 23.701495 13.295896
400   1 0.0000 27.487246 25.245856 17.262338
401   1 0.0000  9.077391  2.042456  1.396568
402   1 0.0000 12.025867  3.586817  5.363011
403   1 0.0000 14.974343  5.131178  9.329453
404   1 0.0000 17.922819  6.675539 13.295896
405   1 0.0000 20.871296  8.219900 17.262338
406   1 0.0000 12.025867  6.298945  1.396568
407   1 0.0000 14.974343  7.843306  5.363011
408   1 0.0000 17.922820  9.387667  9.329453
409   1 0.0000 20.871296 10.932028 13.295896
410   1 0.0000 23.819772 12.476389 17.262338
411   1 0.0000 14.974343 10.555434  1.396568
412   1 0.0000 17.922820 12.099795  5.363011
413   1 0.0000 20.871296 13.644156  9.329453
414   1 0.0000 23.819772 15.188517 13.295896
415   1 0.0000 26.768248 16.732878 17.262338
416   1 0.0000 17.922820 14.811923  1.396568
417   1 0.0000 20.871296 16.356284  5.363011
418   1 0.0000 23.819772 17.900645  9.329453
419   1 0.0000 26.768249 19.445006 13.295896
420   1 0.0000 29.716725 20.989367 17.262338
421   1 0.0000 20.871296 19.068411  1.396568
422   1 0.0000 23.819772 20.612772  5.363011
423   1 0.0000 26.768249 22.157134  9.329453
424   1 0.0000 29.716725 23.701495 13.295896
425   1 0.0000 32.665201 25.245856 17.262338
426   1 0.0000 14.255345  2.042456  1.396568
427   1 0.0000 17.203822  3.586817  5.363011
428   1 0.0000 20.152298  5.131178  9.329453
429   1 0.0000 23.100774  6.675539 13.295896
430   1 0.0000 26.049251  8.219900 17.262338
431   1 0.0000 17.203822  6.298945  1.396568
432   1 0.0000 20.152298  7.843306  5.363011
433   1 0.0000 23.100774  9.387667  9.329453
434   1 0.0000 26.049251 10.932028 13.295896
435   1 0.0000 28.997727 12.476389 17.262338
436   1 0.0000 20.152298 10.555434  1.396568
437   1 0.0000 23.100774 12.099795  5.363011
438   1 0.0000 26.049251 13.644156  9.329453
439   1 0.0000 28.997727 15.188517 13.295896
440   1 0.0000 31.946203 16.732878 17.262338
441   1 0.0000 23.100774 14.811923  1.396568
442   1 0.0000 26.049251 16.356284  5.363011
443   1 0.0000 28.997727 17.900645  9.329453
444   1 0.0000 31.946203 19.445006 13.295896
445   1 0.0000 34.894680 20.989367 17.262338
446   1 0.0000 26.049251 19.068411  1.396568
447   1 0.0000 28.997727 20.612772  5.363011
448   1 0.0000 31.946203 22.157134  9.329453
449   1 0.0000 34.894680 23.701495 13.295896
450   1 0.0000 37.843156 25.245856 17.262338
451   1 0.0000 19.433300  2.042456  1.396568
452   1 0.0000 22.381776  3.586817  5.363011
453   1 0.0000 25.330253  5.131178  9.329453
454   1 0.0000 28.278729  6.675539 13.295896
455   1 0.0000 31.227205  8.219900 17.262338
456   1 0.0000 22.381776  6.298945  1.396568
457   1 0.0000 25.330253  7.843306  5.363011
458   1 0.0000 28.278729  9.387667  9.329453
459   1 0.0000 31.227205 10.932028 13.295896
460   1 0.0000 34.175682 12.476389 17.262338
461   1 0.0000 25.330253 10.555434  1.396568
462   1 0.0000 28.278729 12.099795  5.363011
463   1 0.0000 31.227205 13.644156  9.329453
464   1 0.0000 34.175682 15.188517 13.295896
465   1 0.0000 37.124158 16.732878 17.262338
466   1 0.0000 28.278729 14.811923  1.396568
467   1 0.0000 31.227205 16.356284  5.363011
468   1 0.0000 34.175682 17.900645  9.329453
469   1 0.0000 37.124158 19.445006 13.295896
470   1 0.0000 40.072634 20.989367 17.262338
471   1 0.0000 31.227205 19.068411  1.396568
472   1 0.0000 34.175682 20.612772  5.363011
473   1 0.0000 37.124158 22.157134  9.329453
474   1 0.0000 40.072634 23.701495 13.295896
475   1 0.0000 43.021111 25.245856 17.262338
476   1 0.0000 24.611255  2.042456  1.396568
477   1 0.0000 27.559731  3.586817  5.363011
478   1 0.0000 30.508207  5.131178  9.329453
479   1 0.0000 33.456684  6.675539 13.295896
480   1 0.0000 36.405160  8.219900 17.262338
481   1 0.0000 27.559731  6.298945  1.396568
482   1 0.0000 30.508207  7.843306  5.363011
483   1 0.0000 33.456684  9.387667  9.329453
484   1 0.0000 36.405160 10.932028 13.295896
485   1 0.0000 39.353636 12.476389 17.262338
486   1 0.0000 30.508208 10.555434  1.396568
487   1 0.0000 33.456684 12.099795  5.363011
488   1 0.0000 36.405160 13.644156  9.329453
489   1 0.0000 39.353636 15.188517 13.295896
490   1 0.0000 42.302113 16.732878 17.262338
491   1 0.0000 33.456684 14.811923  1.396568
492   1 0.0000 36.405160 16.356284  5.363011
493   1 0.0000 39.353636 17.900645  9.329453
494   1 0.0000 42.302113 19.445006 13.295896
495   1 0.0000 45.250589 20.989367 17.262338
496   1 0.0000 36.405160 19.068411  1.396568
497   1 0.0000 39.353637 20.612772  5.363011
498   1 0.0000 42.302113 22.157134  9.329453
499   1 0.0000 45.250589 23.701495 13.295896
500   1 0.0000 48.199065 25.245856 17.262338
501   2 0.0000  4.675163  1.397253  2.974836
502   2 0.0000  7.623640  2.941614  6.941278
503   2 0.0000 10.572116  4.485975 10.907720
504   2 0.0000 13.520592  6.030336 14.874163
505   2 0.0000 16.469069  7.574697 18.840605
506   2 0.0000  7.623640  5.653742  2.974836
507   2 0.0000 10.572116  7.198103  6.941278
508   2 0.0000 13.520592  8.742464 10.907720
509   2 0.0000 16.469069 10.286825 14.874163
510   2 0.0000 19.417545 11.831186 18.840605
511   2 0.0000 10.572116  9.910231  2.974836
512   2 0.0000 13.520593 11.454592  6.941278
513   2 0.0000 16.469069 12.998953 10.907720
514   2 0.0000 19.417545 14.543314 14.874163
515   2 0.0000 22.366021 16.087675 18.840605
516   2 0.0000 13.520593 14.166719  2.974836
517   2 0.0000 16.469069 15.711080  6.941278
518   2 0.0000 19.417545 17.255442 10.907720
519   2 0.0000 22.366021 18.799803 14.874163
520   2 0.0000 25.314498 20.344164 18.840605
521   2 0.0000 16.469069 18.423208  2.974836
522   2 0.0000 19.417545 19.967569  6.941278
523   2 0.0000 22.366022 21.511930 10.907720
524   2 0.0000 25.314498 23.056291 14.874163
525   2 0.0000 28.262974 24.600653 18.840605
526   2 0.0000  9.853118  1.397253  2.974836
527   2 0.0000 12.801595  2.941614  6.941278
528   2 0.0000 15.750071  4.485975 10.907720
529   2 0.0000 18.698547  6.030336 14.874163
530   2 0.0000 21.647023  7.574697 18.840605
531   2 0.0000 12.801595  5.653742  2.974836
532   2 0.0000 15.750071  7.198103  6.941278
533   2 0.0000 18.698547  8.742464 10.907720
534   2 0.0000 21.647024 10.286825 14.874163
535   2 0.0000 24.595500 11.831186 18.840605
536   2 0.0000 15.750071  9.910231  2.974836
537   2 0.0000 18.698547 11.454592  6.941278
538   2 0.0000 21.647024 12.998953 10.907720
539   2 0.0000 24.595500 14.543314 14.874163
540   2 0.0000 27.543976 16.087675 18.840605
541   2 0.0000 18.698547 14.166719  2.974836
542   2 0.0000 21.647024 15.711080  6.941278
543   2 0.0000 24.595500 17.255442 10.907720
544   2 0.0000 27.543976 18.799803 14.874163
545   2 0.0000 30.492453 20.344164 18.840605
546   2 0.0000 21.647024 18.423208  2.974836
547   2 0.0000 24.595500 19.967569  6.941278
548   2 0.0000 27.543976 21.511930 10.907720
549   2 0.0000 30.492453 23.056291 14.874163
550   2 0.0000 33.440929 24.600653 18.840605
551   2 0.0000 15.031073  1.397253  2.974836
552   2 0.0000 17.979549  2.941614  6.941278
553   2 0.0000 20.928026  4.485975 10.907720
554   2 0.0000 23.876502  6.030336 14.874163
555   2 0.0000 26.824978  7.574697 18.840605
556   2 0.0000 17.979549  5.653742  2.974836
557   2 0.0000 20.928026  7.198103  6.941278
558   2 0.0000 23.876502  8.742464 10.907720
559   2 0.0000 26.824978 10.286825 14.874163
560   2 0.0000 29.773455 11.831186 18.840605
561   2 0.0000 20.928026  9.910231  2.974836
562   2 0.0000 23.876502 11.454592  6.941278
563   2 0.0000 26.824978 12.998953 10.907720
564   2 0.0000 29.773455 14.543314 14.874163
565   2 0.0000 32.721931 16.087675 18.840605
566   2 0.0000 23.876502 14.166719  2.974836
567   2 0.0000 26.824978 15.711080  6.941278
568   2 0.0000 29.773455 17.255442 10.907720
569   2 0.0000 32.721931 18.799803 14.874163
570   2 0.0000 35.670407 20.344164 18.840605
571   2 0.0000 26.824978 18.423208  2.974836
572   2 0.0000 29.773455 19.967569  6.941278
573   2 0.0000 32.721931 21.511930 10.907720
574   2 0.0000 35.670407 23.056291 14.874163
575   2 0.0000 38.618884 24.600653 18.840605
576   2 0.0000 20.209028  1.397253  2.974836
577   2 0.0000 23.157504  2.941614  6.941278
578   2 0.0000 26.105980  4.485975 10.907720
579   2 0.0000 29.054457  6.030336 14.874163
580   2 0.0000 32.002933  7.574697 18.840605
581   2 0.0000 23.157504  5.653742  2.974836
582   2 0.0000 26.105980  7.198103  6.941278
583   2 0.0000 29.054457  8.742464 10.907720
584   2 0.0000 32.002933 10.286825 14.874163
585   2 0.0000 34.951409 11.831186 18.840605
586   2 0.0000 26.105980  9.910231  2.974836
587   2 0.0000 29.054457 11.454592  6.941278
588   2 0.0000 32.002933 12.998953 10.907720
589   2 0.0000 34.951409 14.543314 14.874163
590   2 0.0000 37.899886 16.087675 18.840605
591   2 0.0000 29.054457 14.166719  2.974836
592   2 0.0000 32.002933 15.711080  6.941278
593   2 0.0000 34.951409 17.255442 10.907720
594   2 0.0000 37.899886 18.799803 14.874163
595   2 0.0000 40.848362 20.344164 18.840605
596   2 0.0000 32.002933 18.423208  2.974836
597   2 0.0000 34.951409 19.967569  6.941278
598   2 0.0000 37.899886 21.511930 10.907720
599   2 0.0000 40.848362 23.056291 14.874163
600   2 0.0000 43.796838 24.600653 18.840605
601   2 0.0000 25.386983  1.397253  2.974836
602   2 0.0000 28.335459  2.941614  6.941278
603   2 0.0000 31.283935  4.485975 10.907720
604   2 0.0000 34.232411  6.030336 14.874163
605   2 0.0000 37.180888  7.574697 18.840605
606   2 0.0000 28.335459  5.653742  2.974836
607   2 0.0000 31.283935  7.198103  6.941278
608   2 0.0000 34.232411  8.742464 10.907720
609   2 0.0000 37.180888 10.286825 14.874163
610   2 0.0000 40.129364 11.831186 18.840605
611   2 0.0000 31.283935  9.910231  2.974836
612   2 0.0000 34.232412 11.454592  6.941278
613   2 0.0000 37.180888 12.998953 10.907720
614   2 0.0000 40.129364 14.543314 14.874163
615   2 0.0000 43.077840 16.087675 18.840605
616   2 0.0000 34.232412 14.166719  2.974836
617   2 0.0000 37.180888 15.711080  6.941278
618   2 0.0000 40.129364 17.255442 10.907720
619   2 0.0000 43.077841 18.799803 14.874163
620   2 0.0000 46.026317 20.344164 18.840605
621   2 0.0000 37.180888 18.423208  2.974836
622   2 0.0000 40.129364 19.967569  6.941278
623   2 0.0000 43.077841 21.511930 10.907720
624   2 0.0000 46.026317 23.056291 14.874163
625   2 0.0000 48.974793 24.600653 18.840605
626   2 0.0000  7.264141  1.923015  2.205917
627   2 0.0000 10.212617  3.467376  6.172359
628   2 0.0000 13.161093  5.011737 10.138802
629   2 0.0000 16.109570  6.556098 14.105244
630   2 0.0000 19.058046  8.100459 18.071687
631   2 0.0000 10.212617  6.179504  2.205917
632   2 0.0000 13.161094  7.723865  6.172359
633   2 0.0000 16.109570  9.268226 10.138802
634   2 0.0000 19.058046 10.812587 14.105244
635   2 0.0000 22.006522 12.356948 18.071687
636   2 0.0000 13.161094 10.435993  2.205917
637   2 0.0000 16.109570 11.980354  6.172359
638   2 0.0000 19.058046 13.524715 10.138802
639   2 0.0000 22.006523 15.069076 14.105244
640   2 0.0000 24.954999 16.613437 18.071687
641   2 0.0000 16.109570 14.692482  2.205917
642   2 0.0000 19.058046 16.236843  6.172359
643   2 0.0000 22.006523 17.781204 10.138802
644   2 0.0000 24.954999 19.325565 14.105244
645   2 0.0000 27.903475 20.869926 18.071687
646   2 0.0000 19.058046 18.948970  2.205917
647   2 0.0000 22.006523 20.493332  6.172359
648   2 0.0000 24.954999 22.037693 10.138802
649   2 0.0000 27.903475 23.582054 14.105244
650   2 0.0000 30.851952 25.126415 18.071687
651   2 0.0000 12.442096  1.923015  2.205917
652   2 0.0000 15.390572  3.467376  6.172359
653   2 0.0000 18.339048  5.011737 10.138802
654   2 0.0000 21.287525  6.556098 14.105244
655   2 0.0000 24.236001  8.100459 18.071687
656   2 0.0000 15.390572  6.179504  2.205917
657   2 0.0000 18.339048  7.723865  6.172359
658   2 0.0000 21.287525  9.268226 10.138802
659   2 0.0000 24.236001 10.812587 14.105244
660   2 0.0000 27.184477 12.356948 18.071687
661   2 0.0000 18.339048 10.435993  2.205917
662   2 0.0000 21.287525 11.980354  6.172359
663   2 0.0000 24.236001 13.524715 10.138802
664   2 0.0000 27.184477 15.069076 14.105244
665   2 0.0000 30.132954 16.613437 18.071687
666   2 0.0000 21.287525 14.692482  2.205917
667   2 0.0000 24.236001 16.236843  6.172359
668   2 0.0000 27.184477 17.781204 10.138802
669   2 0.0000 30.132954 19.325565 14.105244
670   2 0.0000 33.081430 20.869926 18.071687
671   2 0.0000 24.236001 18.948970  2.205917
672   2 0.0000 27.184477 20.493332  6.172359
673   2 0.0000 30.132954 22.037693 10.138802
674   2 0.0000 33.081430 23.582054 14.105244
675   2 0.0000 36.029906 25.126415 18.071687
676   2 0.0000 17.620050  1.923015  2.205917
677   2 0.0000 20.568527  3.467376  6.172359
678   2 0.0000 23.517003  5.011737 10.138802
679   2 0.0000 26.465479  6.556098 14.105244
680   2 0.0000 29.413956  8.100459 18.071687
681   2 0.0000 20.568527  6.179504  2.205917
682   2 0.0000 23.517003  7.723865  6.172359
683   2 0.0000 26.465479  9.268226 10.138802
684   2 0.0000 29.413956 10.812587 14.105244
685   2 0.0000 32.362432 12.356948 18.071687
686   2 0.0000 23.517003 10.435993  2.205917
687   2 0.0000 26.465479 11.980354  6.172359
688   2 0.0000 29.413956 13.524715 10.138802
689   2 0.0000 32.362432 15.069076 14.105244
690   2 0.0000 35.310908 16.613437 18.071687
691   2 0.0000 26.465479 14.692482  2.205917
692   2 0.0000 29.413956 16.236843  6.172359
693   2 0.0000 32.362432 17.781204 10.138802
694   2 0.0000 35.310908 19.325565 14.105244
695   2 0.0000 38.259385 20.869926 18.071687
696   2 0.0000 29.413956 18.948970  2.205917
697   2 0.0000 32.362432 20.493332  6.172359
698   2 0.0000 35.310908 22.037693 10.138802
699   2 0.0000 38.259385 23.582054 14.105244
700   2 0.0000 41.207861 25.126415 18.071687
701   2 0.0000 22.798005  1.923015  2.205917
702   2 0.0000 25.746481  3.467376  6.172359
703   2 0.0000 28.694958  5.011737 10.138802
704   2 0.0000 31.643434  6.556098 14.105244
705   2 0.0000 34.591910  8.100459 18.071687
706   2 0.0000 25.746482  6.179504  2.205917
707   2 0.0000 28.694958  7.723865  6.172359
708   2 0.0000 31.643434  9.268226 10.138802
709   2 0.0000 34.591910 10.812587 14.105244
710   2 0.0000 37.540387 12.356948 18.071687
711   2 0.0000 28.694958 10.435993  2.205917
712   2 0.0000 31.643434 11.980354  6.172359
713   2 0.0000 34.591910 13.524715 10.138802
714   2 0.0000 37.540387 15.069076 14.105244
715   2 0.0000 40.488863 16.613437 18.071687
716   2 0.0000 31.643434 14.692482  2.205917
717   2 0.0000 34.591911 16.236843  6.172359
718   2 0.0000 37.540387 17.781204 10.138802
719   2 0.0000 40.488863 19.325565 14.105244
720   2 0.0000 43.437339 20.869926 18.071687
721   2 0.0000 34.591911 18.948970  2.205917
722   2 0.0000 37.540387 20.493332  6.172359
723   2 0.0000 40.488863 22.037693 10.138802
724   2 0.0000 43.437339 23.582054 14.105244
725   2 0.0000 46.385816 25.126415 18.071687
726   2 0.0000 27.975960  1.923015  2.205917
727   2 0.0000 30.924436  3.467376  6.172359
728   2 0.0000 33.872913  5.011737 10.138802
729   2 0.0000 36.821389  6.556098 14.105244
730   2 0.0000 39.769865  8.100459 18.071687
731   2 0.0000 30.924436  6.179504  2.205917
732   2 0.0000 33.872913  7.723865  6.172359
733   2 0.0000 36.821389  9.268226 10.138802
734   2 0.0000 39.769865 10.812587 14.105244
735   2 0.0000 42.718341 12.356948 18.071687
736   2 0.0000 33.872913 10.435993  2.205917
737   2 0.0000 36.821389 11.980354  6.172359
738   2 0.0000 39.769865 13.524715 10.138802
739   2 0.0000 42.718342 15.069076 14.105244
740   2 0.0000 45.666818 16.613437 18.071687
741   2 0.0000 36.821389 14.692482  2.205917
742   2 0.0000 39.769865 16.236843  6.172359
743   2 0.0000 42.718342 17.781204 10.138802
744   2 0.0000 45.666818 19.325565 14.105244
745   2 0.0000 48.615294 20.869926 18.071687
746   2 0.0000 39.769865 18.948970  2.205917
747   2 0.0000 42.718342 20.493332  6.172359
748   2 0.0000 45.666818 22.037693 10.138802
749   2 0.0000 48.615294 23.582054 14.105244
750   2 0.0000 51.563771 25.126415 18.071687
751   2 0.0000  3.810764  3.877839  1.760525
752   2 0.0000  6.759241  5.422200  5.726968
753   2 0.0000  9.707717  6.966561  9.693410
754   2 0.0000 12.656193  8.510922 13.659852
755   2 0.0000 15.604670 10.055283 17.626295
756   2 0.0000  6.759241  8.134328  1.760525
757   2 0.0000  9.707717  9.678689  5.726968
758   2 0.0000 12.656193 11.223050  9.693410
759   2 0.0000 15.604670 12.767411 13.659852
760   2 0.0000 18.553146 14.311772 17.626295
761   2 0.0000  9.707717 12.390817  1.760525
762   2 0.0000 12.656193 13.935178  5.726968
763   2 0.0000 15.604670 15.479539  9.693410
764   2 0.0000 18.553146 17.023900 13.659852
765   2 0.0000 21.501622 18.568261 17.626295
766   2 0.0000 12.656193 16.647306  1.760525
767   2 0.0000 15.604670 18.191667  5.726968
768   2 0.0000 18.553146 19.736028  9.693410
769   2 0.0000 21.501622 21.280389 13.659852
770   2 0.0000 24.450099 22.824750 17.626295
771   2 0.0000 15.604670 20.903794  1.760525
772   2 0.0000 18.553146 22.448155  5.726968
773   2 0.0000 21.501622 23.992516  9.693410
774   2 0.0000 24.450099 25.536878 13.659852
775   2 0.0000 27.398575 27.081239 17.626295
776   2 0.0000  8.988719  3.877839  1.760525
777   2 0.0000 11.937195  5.422200  5.726968
778   2 0.0000 14.885672  6.966561  9.693410
779   2 0.0000 17.834148  8.510922 13.659852
780   2 0.0000 20.782624 10.055283 17.626295
781   2 0.0000 11.937195  8.134328  1.760525
782   2 0.0000 14.885672  9.678689  5.726968
783   2 0.0000 17.834148 11.223050  9.693410
784   2 0.0000 20.782624 12.767411 13.659852
785   2 0.0000 23.731101 14.311772 17.626295
786   2 0.0000 14.885672 12.390817  1.760525
787   2 0.0000 17.834148 13.935178  5.726968
788   2 0.0000 20.782624 15.479539  9.693410
789   2 0.0000 23.731101 17.023900 13.659852
790   2 0.0000 26.679577 18.568261 17.626295
791   2 0.0000 17.834148 16.647306  1.760525
792   2 0.0000 20.782624 18.191667  5.726968
793   2 0.0000 23.731101 19.736028  9.693410
794   2 0.0000 26.679577 21.280389 13.659852
795   2 0.0000 29.628053 22.824750 17.626295
796   2 0.0000 20.782624 20.903794  1.760525
797   2 0.0000 23.731101 22.448155  5.726968
798   2 0.0000 26.679577 23.992516  9.693410
799   2 0.0000 29.628053 25.536878 13.659852
800   2 0.0000 32.576530 27.081239 17.626295
801   2 0.0000 14.166674  3.877839  1.760525
802   2 0.0000 17.115150  5.422200  5.726968
803   2 0.0000 20.063626  6.966561  9.693410
804   2 0.0000 23.012103  8.510922 13.659852
805   2 0.0000 25.960579 10.055283 17.626295
806   2 0.0000 17.115150  8.134328  1.760525
807   2 0.0000 20.063626  9.678689  5.726968
808   2 0.0000 23.012103 11.223050  9.693410
809   2 0.0000 25.960579 12.767411 13.659852
810   2 0.0000 28.909055 14.311772 17.626295
811   2 0.0000 20.063627 12.390817  1.760525
812   2 0.0000 23.012103 13.935178  5.726968
813   2 0.0000 25.960579 15.479539  9.693410
814   2 0.0000 28.909055 17.023900 13.659852
815   2 0.0000 31.857532 18.568261 17.626295
816   2 0.0000 23.012103 16.647306  1.760525
817   2 0.0000 25.960579 18.191667  5.726968
818   2 0.0000 28.909056 19.736028  9.693410
819   2 0.0000 31.857532 21.280389 13.659852
820   2 0.0000 34.806008 22.824750 17.626295
821   2 0.0000 25.960579 20.903794  1.760525
822   2 0.0000 28.909056 22.448155  5.726968
823   2 0.0000 31.857532 23.992516  9.693410
824   2 0.0000 34.806008 25.536878 13.659852
825   2 0.0000 37.754484 27.081239 17.626295
826   2 0.0000 19.344629  3.877839  1.760525
827   2 0.0000 22.293105  5.422200  5.726968
828   2 0.0000 25.241581  6.966561  9.693410
829   2 0.0000 28.190058  8.510922 13.659852
830   2 0.0000 31.138534 10.055283 17.626295
831   2 0.0000 22.293105  8.134328  1.760525
832   2 0.0000 25.241581  9.678689  5.726968
833   2 0.0000 28.190058 11.223050  9.693410
834   2 0.0000 31.138534 12.767411 13.659852
835   2 0.0000 34.087010 14.311772 17.626295
836   2 0.0000 25.241581 12.390817  1.760525
837   2 0.0000 28.190058 13.935178  5.726968
838   2 0.0000 31.138534 15.479539  9.693410
839   2 0.0000 34.087010 17.023900 13.659852
840   2 0.0000 37.035487 18.568261 17.626295
841   2 0.0000 28.190058 16.647306  1.760525
842   2 0.0000 31.138534 18.191667  5.726968
843   2 0.0000 34.087010 19.736028  9.693410
844   2 0.0000 37.035487 21.280389 13.659852
845   2 0.0000 39.983963 22.824750 17.626295
846   2 0.0000 31.138534 20.903794  1.760525
847   2 0.0000 34.087010 22.448155  5.726968
848   2 0.0000 37.035487 23.992516  9.693410
849   2 0.0000 39.983963 25.536878 13.659852
850   2 0.0000 42.932439 27.081239 17.626295
851   2 0.0000 24.522583  3.877839  1.760525
852   2 0.0000 27.471060  5.422200  5.726968
853   2 0.0000 30.419536  6.966561  9.693410
854   2 0.0000 33.368012  8.510922 13.659852
855   2 0.0000 36.316489 10.055283 17.626295
856   2 0.0000 27.471060  8.134328  1.760525
857   2 0.0000 30.419536  9.678689  5.726968
858   2 0.0000 33.368012 11.223050  9.693410
859   2 0.0000 36.316489 12.767411 13.659852
860   2 0.0000 39.264965 14.311772 17.626295
861   2 0.0000 30.419536 12.390817  1.760525
862   2 0.0000 33.368012 13.935178  5.726968
863   2 0.0000 36.316489 15.479539  9.693410
864   2 0.0000 39.264965 17.023900 13.659852
865   2 0.0000 42.213441 18.568261 17.626295
866   2 0.0000 33.368012 16.647306  1.760525
867   2 0.0000 36.316489 18.191667  5.726968
868   2 0.0000 39.264965 19.736028  9.693410
869   2 0.0000 42.213441 21.280389 13.659852
870   2 0.0000 45.161918 22.824750 17.626295
871   2 0.0000 36.316489 20.903794  1.760525
872   2 0.0000 39.264965 22.448155  5.726968
873   2 0.0000 42.213441 23.992516  9.693410
874   2 0.0000 45.161918 25.536878 13.659852
875   2 0.0000 48.110394 27.081239 17.626295
876   2 0.0000  5.357709  1.975975  0.222692
877   2 0.0000  8.306186  3.520336  4.189134
878   2 0.0000 11.254662  5.064697  8.155577
879   2 0.0000 14.203138  6.609058 12.122019
880   2 0.0000 17.151615  8.153419 16.088461
881   2 0.0000  8.306186  6.232464  0.222692
882   2 0.0000 11.254662  7.776825  4.189134
883   2 0.0000 14.203138  9.321186  8.155577
884   2 0.0000 17.151615 10.865547 12.122019
885   2 0.0000 20.100091 12.409908 16.088461
886   2 0.0000 11.254662 10.488952  0.222692
887   2 0.0000 14.203138 12.033313  4.189134
888   2 0.0000 17.151615 13.577675  8.155577
889   2 0.0000 20.100091 15.122036 12.122019
890   2 0.0000 23.048567 16.666397 16.088461
891   2 0.0000 14.203138 14.745441  0.222692
892   2 0.0000 17.151615 16.289802  4.189134
893   2 0.0000 20.100091 17.834163  8.155577
894   2 0.0000 23.048567 19.378524 12.122019
895   2 0.0000 25.997044 20.922886 16.088461
896   2 0.0000 17.151615 19.001930  0.222692
897   2 0.0000 20.100091 20.546291  4.189134
898   2 0.0000 23.048567 22.090652  8.155577
899   2 0.0000 25.997044 23.635013 12.122019
900   2 0.0000 28.945520 25.179374 16.088461
901   2 0.0000 10.535664  1.975975  0.222692
902   2 0.0000 13.484140  3.520336  4.189134
903   2 0.0000 16.432617  5.064697  8.155577
904   2 0.0000 19.381093  6.609058 12.122019
905   2 0.0000 22.329569  8.153419 16.088461
906   2 0.0000 13.484141  6.232464  0.222692
907   2 0.0000 16.432617  7.776825  4.189134
908   2 0.0000 19.381093  9.321186  8.155577
909   2 0.0000 22.329569 10.865547 12.122019
910   2 0.0000 25.278046 12.409908 16.088461
911   2 0.0000 16.432617 10.488952  0.222692
912   2 0.0000 19.381093 12.033313  4.189134
913   2 0.0000 22.329570 13.577675  8.155577
914   2 0.0000 25.278046 15.122036 12.122019
915   2 0.0000 28.226522 16.666397 16.088461
916   2 0.0000 19.381093 14.745441  0.222692
917   2 0.0000 22.329570 16.289802  4.189134
918   2 0.0000 25.278046 17.834163  8.155577
919   2 0.0000 28.226522 19.378524 12.122019
920   2 0.0000 31.174998 20.922886 16.088461
921   2 0.0000 22.329570 19.001930  0.222692
922   2 0.0000 25.278046 20.546291  4.189134
923   2 0.0000 28.226522 22.090652  8.155577
924   2 0.0000 31.174999 23.635013 12.122019
925   2 0.0000 34.123475 25.179374 16.088461
926   2 0.0000 15.713619  1.975975  0.222692
927   2 0.0000 18.662095  3.520336  4.189134
928   2 0.0000 21.610572  5.064697  8.155577
929   2 0.0000 24.559048  6.609058 12.122019
930   2 0.0000 27.507524  8.153419 16.088461
931   2 0.0000 18.662095  6.232464  0.222692
932   2 0.0000 21.610572  7.776825  4.189134
933   2 0.0000 24.559048  9.321186  8.155577
934   2 0.0000 27.507524 10.865547 12.122019
935   2 0.0000 30.456001 12.409908 16.088461
936   2 0.0000 21.610572 10.488952  0.222692
937   2 0.0000 24.559048 12.033313  4.189134
938   2 0.0000 27.507524 13.577675  8.155577
939   2 0.0000 30.456001 15.122036 12.122019
940   2 0.0000 33.404477 16.666397 16.088461
941   2 0.0000 24.559048 14.745441  0.222692
942   2 0.0000 27.507524 16.289802  4.189134
943   2 0.0000 30.456001 17.834163  8.155577
944   2 0.0000 33.404477 19.378524 12.122019
945   2 0.0000 36.352953 20.922886 16.088461
946   2 0.0000 27.507524 19.001930  0.222692
947   2 0.0000 30.456001 20.546291  4.189134
948   2 0.0000 33.404477 22.090652  8.155577
949   2 0.0000 36.352953 23.635013 12.122019
950   2 0.0000 39.301430 25.179374 16.088461
951   2 0.0000 20.891574  1.975975  0.222692
952   2 0.0000 23.840050  3.520336  4.189134
953   2 0.0000 26.788526  5.064697  8.155577
954   2 0.0000 29.737003  6.609058 12.122019
955   2 0.0000 32.685479  8.153419 16.088461
956   2 0.0000 23.840050  6.232464  0.222692
957   2 0.0000 26.788526  7.776825  4.189134
958   2 0.0000 29.737003  9.321186  8.155577
959   2 0.0000 32.685479 10.865547 12.122019
960   2 0.0000 35.633955 12.409908 16.088461
961   2 0.0000 26.788526 10.488952  0.222692
962   2 0.0000 29.737003 12.033313  4.189134
963   2 0.0000 32.685479 13.577675  8.155577
964   2 0.0000 35.633955 15.122036 12.122019
965   2 0.0000 38.582432 16.666397 16.088461
966   2 0.0000 29.737003 14.745441  0.222692
967   2 0.0000 32.685479 16.289802  4.189134
968   2 0.0000 35.633955 17.834163  8.155577
969   2 0.0000 38.582432 19.378524 12.122019
970   2 0.0000 41.530908 20.922886 16.088461
971   2 0.0000 32.685479 19.001930  0.222692
972   2 0.0000 35.633955 20.546291  4.189134
973   2 0.0000 38.582432 22.090652  8.155577
974   2 0.0000 41.530908 23.635013 12.122019
975   2 0.0000 44.479384 25.179374 16.088461
976   2 0.0000 26.069528  1.975975  0.222692
977   2 0.0000 29.018005  3.520336  4.189134
978   2 0.0000 31.966481  5.064697  8.155577
979   2 0.0000 34.914957  6.609058 12.122019
980   2 0.0000 37.863434  8.153419 16.088461
981   2 0.0000 29.018005  6.232464  0.222692
982   2 0.0000 31.966481  7.776825  4.189134
983   2 0.0000 34.914957  9.321186  8.155577
984   2 0.0000 37.863434 10.865547 12.122019
985   2 0.0000 40.811910 12.409908 16.088461
986   2 0.0000 31.966481 10.488952  0.222692
987   2 0.0000 34.914957 12.033313  4.189134
988   2 0.0000 37.863434 13.577675  8.155577
989   2 0.0000 40.811910 15.122036 12.122019
990   2 0.0000 43.760386 16.666397 16.088461
991   2 0.0000 34.914958 14.745441  0.222692
992   2 0.0000 37.863434 16.289802  4.189134
993   2 0.0000 40.811910 17.834163  8.155577
994   2 0.0000 43.760386 19.378524 12.122019
995   2 0.0000 46.708863 20.922886 16.088461
996   2 0.0000 37.863434 19.001930  0.222692
997   2 0.0000 40.811910 20.546291  4.189134
998   2 0.0000 43.760386 22.090652  8.155577
999   2 0.0000 46.708863 23.635013 12.122019
1000  2 0.0000 49.657339 25.179374 16.088461
1001  2 0.0000  5.717200  3.824874  3.743746
1002  2 0.0000  8.665677  5.369235  7.710189
1003  2 0.0000 11.614153  6.913596 11.676631
1004  2 0.0000 14.562629  8.457957 15.643074
1005  2 0.0000 17.511105 10.002318 19.609516
1006  2 0.0000  8.665677  8.081362  3.743746
1007  2 0.0000 11.614153  9.625724  7.710189
1008  2 0.0000 14.562629 11.170085 11.676631
1009  2 0.0000 17.511105 12.714446 15.643074
1010  2 0.0000 20.459582 14.258807 19.609516
1011  2 0.0000 11.614153 12.337851  3.743746
1012  2 0.0000 14.562629 13.882212  7.710189
1013  2 0.0000 17.511106 15.426573 11.676631
1014  2 0.0000 20.459582 16.970935 15.643074
1015  2 0.0000 23.408058 18.515296 19.609516
1016  2 0.0000 14.562629 16.594340  3.743746
1017  2 0.0000 17.511106 18.138701  7.710189
1018  2 0.0000 20.459582 19.683062 11.676631
1019  2 0.0000 23.408058 21.227423 15.643074
1020  2 0.0000 26.356535 22.771784 19.609516
1021  2 0.0000 17.511106 20.850829  3.743746
1022  2 0.0000 20.459582 22.395190  7.710189
1023  2 0.0000 23.408058 23.939551 11.676631
1024  2 0.0000 26.356535 25.483912 15.643074
1025  2 0.0000 29.305011 27.028273 19.609516
1026  2 0.0000 10.895155  3.824874  3.743746
1027  2 0.0000 13.843631  5.369235  7.710189
1028  2 0.0000 16.792108  6.913596 11.676631
1029  2 0.0000 19.740584  8.457957 15.643074
1030  2 0.0000 22.689060 10.002318 19.609516
1031  2 0.0000 13.843631  8.081362  3.743746
1032  2 0.0000 16.792108  9.625724  7.710189
1033  2 0.0000 19.740584 11.170085 11.676631
1034  2 0.0000 22.689060 12.714446 15.643074
1035  2 0.0000 25.637537 14.258807 19.609516
1036  2 0.0000 16.792108 12.337851  3.743746
1037  2 0.0000 19.740584 13.882212  7.710189
1038  2 0.0000 22.689060 15.426573 11.676631
1039  2 0.0000 25.637537 16.970935 15.643074
1040  2 0.0000 28.586013 18.515296 19.609516
1041  2 0.0000 19.740584 16.594340  3.743746
1042  2 0.0000 22.689060 18.138701  7.710189
1043  2 0.0000 25.637537 19.683062 11.676631
1044  2 0.0000 28.586013 21.227423 15.643074
1045  2 0.0000 31.534489 22.771784 19.609516
1046  2 0.0000 22.689060 20.850829  3.743746
1047  2 0.0000 25.637537 22.395190  7.710189
1048  2 0.0000 28.586013 23.939551 11.676631
1049  2 0.0000 31.534489 25.483912 15.643074
1050  2 0.0000 34.482966 27.028273 19.609516
1051  2 0.0000 16.073110  3.824874  3.743746
1052  2 0.0000 19.021586  5.369235  7.710189
1053  2 0.0000 21.970062  6.913596 11.676631
1054  2 0.0000 24.918539  8.457957 15.643074
1055  2 0.0000 27.867015 10.002318 19.609516
1056  2 0.0000 19.021586  8.081362  3.743746
1057  2 0.0000 21.970062  9.625724  7.710189
1058  2 0.0000 24.918539 11.170085 11.676631
1059  2 0.0000 27.867015 12.714446 15.643074
1060  2 0.0000 30.815491 14.258807 19.609516
1061  2 0.0000 21.970062 12.337851  3.743746
1062  2 0.0000 24.918539 13.882212  7.710189
1063  2 0.0000 27.867015 15.426573 11.676631
1064  2 0.0000 30.815491 16.970935 15.643074
1065  2 0.0000 33.763968 18.515296 19.609516
1066  2 0.0000 24.918539 16.594340  3.743746
1067  2 0.0000 27.867015 18.138701  7.710189
1068  2 0.0000 30.815491 19.683062 11.676631
1069  2 0.0000 33.763968 21.227423 15.643074
1070  2 0.0000 36.712444 22.771784 19.609516
1071  2 0.0000 27.867015 20.850829  3.743746
1072  2 0.0000 30.815491 22.395190  7.710189
1073  2 0.0000 33.763968 23.939551 11.676631
1074  2 0.0000 36.712444 25.483912 15.643074
1075  2 0.0000 39.660920 27.028273 19.609516
1076  2 0.0000 21.251065  3.824874  3.743746
1077  2 0.0000 24.199541  5.369235  7.710189
1078  2 0.0000 27.148017  6.913596 11.676631
1079  2 0.0000 30.096493  8.457957 15.643074
1080  2 0.0000 33.044970 10.002318 19.609516
1081  2 0.0000 24.199541  8.081362  3.743746
1082  2 0.0000 27.148017  9.625724  7.710189
1083  2 0.0000 30.096493 11.170085 11.676631
1084  2 0.0000 33.044970 12.714446 15.643074
1085  2 0.0000 35.993446 14.258807 19.609516
1086  2 0.0000 27.148017 12.337851  3.743746
1087  2 0.0000 30.096494 13.882212  7.710189
1088  2 0.0000 33.044970 15.426573 11.676631
1089  2 0.0000 35.993446 16.970935 15.643074
1090  2 0.0000 38.941922 18.515296 19.609516
1091  2 0.0000 30.096494 16.594340  3.743746
1092  2 0.0000 33.044970 18.138701  7.710189
1093  2 0.0000 35.993446 19.683062 11.676631
1094  2 0.0000 38.941922 21.227423 15.643074
1095  2 0.0000 41.890399 22.771784 19.609516
1096  2 0.0000 33.044970 20.850829  3.743746
1097  2 0.0000 35.993446 22.395190  7.710189
1098  2 0.0000 38.941923 23.939551 11.676631
1099  2 0.0000 41.890399 25.483912 15.643074
1100  2 0.0000 44.838875 27.028273 19.609516
1101  2 0.0000 26.429019  3.824874  3.743746
1102  2 0.0000 29.377496  5.369235  7.710189
1103  2 0.0000 32.325972  6.913596 11.676631
1104  2 0.0000 35.274448  8.457957 15.643074
1105  2 0.0000 38.222924 10.002318 19.609516
1106  2 0.0000 29.377496  8.081362  3.743746
1107  2 0.0000 32.325972  9.625724  7.710189
1108  2 0.0000 35.274448 11.170085 11.676631
1109  2 0.0000 38.222925 12.714446 15.643074
1110  2 0.0000 41.171401 14.258807 19.609516
1111  2 0.0000 32.325972 12.337851  3.743746
1112  2 0.0000 35.274448 13.882212  7.710189
1113  2 0.0000 38.222925 15.426573 11.676631
1114  2 0.0000 41.171401 16.970935 15.643074
1115  2 0.0000 44.119877 18.515296 19.609516
1116  2 0.0000 35.274448 16.594340  3.743746
1117  2 0.0000 38.222925 18.138701  7.710189
1118  2 0.0000 41.171401 19.683062 11.676631
1119  2 0.0000 44.119877 21.227423 15.643074
1120  2 0.0000 47.068354 22.771784 19.609516
1121  2 0.0000 38.222925 20.850829  3.743746
1122  2 0.0000 41.171401 22.395190  7.710189
1123  2 0.0000 44.119877 23.939551 11.676631
1124  2 0.0000 47.068354 25.483912 15.643074
1125  2 0.0000 50.016830 27.028273 19.609516
1126  2 0.0000  6.399742  4.403601  0.991607
1127  2 0.0000  9.348218  5.947962  4.958049
1128  2 0.0000 12.296694  7.492323  8.924491
1129  2 0.0000 15.245171  9.036684 12.890934
1130  2 0.0000 18.193647 10.581046 16.857376
1131  2 0.0000  9.348218  8.660090  0.991607
1132  2 0.0000 12.296694 10.204451  4.958049
1133  2 0.0000 15.245171 11.748812  8.924491
1134  2 0.0000 18.193647 13.293173 12.890934
1135  2 0.0000 21.142123 14.837534 16.857376
1136  2 0.0000 12.296694 12.916579  0.991607
1137  2 0.0000 15.245171 14.460940  4.958049
1138  2 0.0000 18.193647 16.005301  8.924491
1139  2 0.0000 21.142123 17.549662 12.890934
1140  2 0.0000 24.090600 19.094023 16.857376
1141  2 0.0000 15.245171 17.173068  0.991607
1142  2 0.0000 18.193647 18.717429  4.958049
1143  2 0.0000 21.142123 20.261790  8.924491
1144  2 0.0000 24.090600 21.806151 12.890934
1145  2 0.0000 27.039076 23.350512 16.857376
1146  2 0.0000 18.193647 21.429557  0.991607
1147  2 0.0000 21.142123 22.973918  4.958049
1148  2 0.0000 24.090600 24.518279  8.924491
1149  2 0.0000 27.039076 26.062640 12.890934
1150  2 0.0000 29.987552 27.607001 16.857376
1151  2 0.0000 11.577696  4.403601  0.991607
1152  2 0.0000 14.526173  5.947962  4.958049
1153  2 0.0000 17.474649  7.492323  8.924491
1154  2 0.0000 20.423125  9.036684 12.890934
1155  2 0.0000 23.371602 10.581046 16.857376
1156  2 0.0000 14.526173  8.660090  0.991607
1157  2 0.0000 17.474649 10.204451  4.958049
1158  2 0.0000 20.423125 11.748812  8.924491
1159  2 0.0000 23.371602 13.293173 12.890934
1160  2 0.0000 26.320078 14.837534 16.857376
1161  2 0.0000 17.474649 12.916579  0.991607
1162  2 0.0000 20.423125 14.460940  4.958049
1163  2 0.0000 23.371602 16.005301  8.924491
1164  2 0.0000 26.320078 17.549662 12.890934
1165  2 0.0000 29.268554 19.094023 16.857376
1166  2 0.0000 20.423126 17.173068  0.991607
1167  2 0.0000 23.371602 18.717429  4.958049
1168  2 0.0000 26.320078 20.261790  8.924491
1169  2 0.0000 29.268554 21.806151 12.890934
1170  2 0.0000 32.217031 23.350512 16.857376
1171  2 0.0000 23.371602 21.429557  0.991607
1172  2 0.0000 26.320078 22.973918  4.958049
1173  2 0.0000 29.268554 24.518279  8.924491
1174  2 0.0000 32.217031 26.062640 12.890934
1175  2 0.0000 35.165507 27.607001 16.857376
1176  2 0.0000 16.755651  4.403601  0.991607
1177  2 0.0000 19.704128  5.947962  4.958049
1178  2 0.0000 22.652604  7.492323  8.924491
1179  2 0.0000 25.601080  9.036684 12.890934
1180  2 0.0000 28.549556 10.581046 16.857376
1181  2 0.0000 19.704128  8.660090  0.991607
1182  2 0.0000 22.652604 10.204451  4.958049
1183  2 0.0000 25.601080 11.748812  8.924491
1184  2 0.0000 28.549556 13.293173 12.890934
1185  2 0.0000 31.498033 14.837534 16.857376
1186  2 0.0000 22.652604 12.916579  0.991607
1187  2 0.0000 25.601080 14.460940  4.958049
1188  2 0.0000 28.549557 16.005301  8.924491
1189  2 0.0000 31.498033 17.549662 12.890934
1190  2 0.0000 34.446509 19.094023 16.857376
1191  2 0.0000 25.601080 17.173068  0.991607
1192  2 0.0000 28.549557 18.717429  4.958049
1193  2 0.0000 31.498033 20.261790  8.924491
1194  2 0.0000 34.446509 21.806151 12.890934
1195  2 0.0000 37.394986 23.350512 16.857376
1196  2 0.0000 28.549557 21.429557  0.991607
1197  2 0.0000 31.498033 22.973918  4.958049
1198  2 0.0000 34.446509 24.518279  8.924491
1199  2 0.0000 37.394986 26.062640 12.890934
1200  2 0.0000 40.343462 27.607001 16.857376
1201  2 0.0000 21.933606  4.403601  0.991607
1202  2 0.0000 24.882082  5.947962  4.958049
1203  2 0.0000 27.830559  7.492323  8.924491
1204  2 0.0000 30.779035  9.036684 12.890934
1205  2 0.0000 33.727511 10.581046 16.857376
1206  2 0.0000 24.882082  8.660090  0.991607
1207  2 0.0000 27.830559 10.204451  4.958049
1208  2 0.0000 30.779035 11.748812  8.924491
1209  2 0.0000 33.727511 13.293173 12.890934
1210  2 0.0000 36.675988 14.837534 16.857376
1211  2 0.0000 27.830559 12.916579  0.991607
1212  2 0.0000 30.779035 14.460940  4.958049
1213  2 0.0000 33.727511 16.005301  8.924491
1214  2 0.0000 36.675988 17.549662 12.890934
1215  2 0.0000 39.624464 19.094023 16.857376
1216  2 0.0000 30.779035 17.173068  0.991607
1217  2 0.0000 33.727511 18.717429  4.958049
1218  2 0.0000 36.675988 20.261790  8.924491
1219  2 0.0000 39.624464 21.806151 12.890934
1220  2 0.0000 42.572940 23.350512 16.857376
1221  2 0.0000 33.727511 21.429557  0.991607
1222  2 0.0000 36.675988 22.973918  4.958049
1223  2 0.0000 39.624464 24.518279  8.924491
1224  2 0.0000 42.572940 26.062640 12.890934
1225  2 0.0000 45.521417 27.607001 16.857376
1226  2 0.0000 27.111561  4.403601  0.991607
1227  2 0.0000 30.060037  5.947962  4.958049
1228  2 0.0000 33.008513  7.492323  8.924491
1229  2 0.0000 35.956990  9.036684 12.890934
1230  2 0.0000 38.905466 10.581046 16.857376
1231  2 0.0000 30.060037  8.660090  0.991607
1232  2 0.0000 33.008513 10.204451  4.958049
1233  2 0.0000 35.956990 11.748812  8.924491
1234  2 0.0000 38.905466 13.293173 12.890934
1235  2 0.0000 41.853942 14.837534 16.857376
1236  2 0.0000 33.008513 12.916579  0.991607
1237  2 0.0000 35.956990 14.460940  4.958049
1238  2 0.0000 38.905466 16.005301  8.924491
1239  2 0.0000 41.853942 17.549662 12.890934
1240  2 0.0000 44.802419 19.094023 16.857376
1241  2 0.0000 35.956990 17.173068  0.991607
1242  2 0.0000 38.905466 18.717429  4.958049
1243  2 0.0000 41.853942 20.261790  8.924491
1244  2 0.0000 44.802419 21.806151 12.890934
1245  2 0.0000 47.750895 23.350512 16.857376
1246  2 0.0000 38.905466 21.429557  0.991607
1247  2 0.0000 41.853942 22.973918  4.958049
1248  2 0.0000 44.802419 24.518279  8.924491
1249  2 0.0000 47.750895 26.062640 12.890934
1250  2 0.0000 50.699371 27.607001 16.857376

