Generated by pymatgen.io.lammps.data.LammpsData

256  atoms

  2  atom types

0.000000 12.514353  xlo xhi
0.000000 21.675494  ylo yhi
0.000000 10.033910  zlo zhi

Masses

1  26.981539
2  14.006700

Atoms

1    1 0.0000  1.564294  0.903146  2.504900
2    1 0.0000  1.564294  0.903146  7.521855
3    1 0.0000  1.564294  6.322019  2.504900
4    1 0.0000  1.564294  6.322019  7.521855
5    1 0.0000  1.564294 11.740893  2.504900
6    1 0.0000  1.564294 11.740893  7.521855
7    1 0.0000  1.564294 17.159766  2.504900
8    1 0.0000  1.564294 17.159766  7.521855
9    1 0.0000  4.692882  0.903146  2.504900
10   1 0.0000  4.692882  0.903146  7.521855
11   1 0.0000  4.692882  6.322019  2.504900
12   1 0.0000  4.692882  6.322019  7.521855
13   1 0.0000  4.692882 11.740893  2.504900
14   1 0.0000  4.692882 11.740893  7.521855
15   1 0.0000  4.692882 17.159766  2.504900
16   1 0.0000  4.692882 17.159766  7.521855
17   1 0.0000  7.821470  0.903146  2.504900
18   1 0.0000  7.821470  0.903146  7.521855
19   1 0.0000  7.821470  6.322019  2.504900
20   1 0.0000  7.821470  6.322019  7.521855
21   1 0.0000  7.821470 11.740893  2.504900
22   1 0.0000  7.821470 11.740893  7.521855
23   1 0.0000  7.821470 17.159766  2.504900
24   1 0.0000  7.821470 17.159766  7.521855
25   1 0.0000 10.950058  0.903146  2.504900
26   1 0.0000 10.950058  0.903146  7.521855
27   1 0.0000 10.950058  6.322019  2.504900
28   1 0.0000 10.950058  6.322019  7.521855
29   1 0.0000 10.950058 11.740893  2.504900
30   1 0.0000 10.950058 11.740893  7.521855
31   1 0.0000 10.950058 17.159766  2.504900
32   1 0.0000 10.950058 17.159766  7.521855
33   1 0.0000  0.000000  3.612582  2.504900
34   1 0.0000  0.000000  3.612582  7.521855
35   1 0.0000  0.000000  9.031456  2.504900
36   1 0.0000  0.000000  9.031456  7.521855
37   1 0.0000  0.000000 14.450330  2.504900
38   1 0.0000  0.000000 14.450330  7.521855
39   1 0.0000  0.000000 19.869203  2.504900
40   1 0.0000  0.000000 19.869203  7.521855
41   1 0.0000  3.128588  3.612582  2.504900
42   1 0.0000  3.128588  3.612582  7.521855
43   1 0.0000  3.128588  9.031456  2.504900
44   1 0.0000  3.128588  9.031456  7.521855
45   1 0.0000  3.128588 14.450330  2.504900
46   1 0.0000  3.128588 14.450330  7.521855
47   1 0.0000  3.128588 19.869203  2.504900
48   1 0.0000  3.128588 19.869203  7.521855
49   1 0.0000  6.257176  3.612582  2.504900
50   1 0.0000  6.257176  3.612582  7.521855
51   1 0.0000  6.257176  9.031456  2.504900
52   1 0.0000  6.257176  9.031456  7.521855
53   1 0.0000  6.257176 14.450330  2.504900
54   1 0.0000  6.257176 14.450330  7.521855
55   1 0.0000  6.257176 19.869203  2.504900
56   1 0.0000  6.257176 19.869203  7.521855
57   1 0.0000  9.385764  3.612582  2.504900
58   1 0.0000  9.385764  3.612582  7.521855
59   1 0.0000  9.385764  9.031456  2.504900
60   1 0.0000  9.385764  9.031456  7.521855
61   1 0.0000  9.385764 14.450330  2.504900
62   1 0.0000  9.385764 14.450330  7.521855
63   1 0.0000  9.385764 19.869203  2.504900
64   1 0.0000  9.385764 19.869203  7.521855
65   1 0.0000  0.000000  1.806291  5.013378
66   1 0.0000  0.000000  1.806291 10.030333
67   1 0.0000  0.000000  7.225165  5.013378
68   1 0.0000  0.000000  7.225165 10.030333
69   1 0.0000  0.000000 12.644038  5.013378
70   1 0.0000  0.000000 12.644038 10.030333
71   1 0.0000 12.514353 18.062912  5.013378
72   1 0.0000 12.514353 18.062912 10.030333
73   1 0.0000  3.128588  1.806291  5.013378
74   1 0.0000  3.128588  1.806291 10.030333
75   1 0.0000  3.128588  7.225165  5.013378
76   1 0.0000  3.128588  7.225165 10.030333
77   1 0.0000  3.128588 12.644038  5.013378
78   1 0.0000  3.128588 12.644038 10.030333
79   1 0.0000  3.128588 18.062912  5.013378
80   1 0.0000  3.128588 18.062912 10.030333
81   1 0.0000  6.257176  1.806291  5.013378
82   1 0.0000  6.257176  1.806291 10.030333
83   1 0.0000  6.257176  7.225165  5.013378
84   1 0.0000  6.257176  7.225165 10.030333
85   1 0.0000  6.257176 12.644038  5.013378
86   1 0.0000  6.257176 12.644038 10.030333
87   1 0.0000  6.257176 18.062912  5.013378
88   1 0.0000  6.257176 18.062912 10.030333
89   1 0.0000  9.385764  1.806291  5.013378
90   1 0.0000  9.385764  1.806291 10.030333
91   1 0.0000  9.385764  7.225165  5.013378
92   1 0.0000  9.385764  7.225165 10.030333
93   1 0.0000  9.385764 12.644038  5.013378
94   1 0.0000  9.385764 12.644038 10.030333
95   1 0.0000  9.385764 18.062912  5.013378
96   1 0.0000  9.385764 18.062912 10.030333
97   1 0.0000  1.564294  4.515728  5.013378
98   1 0.0000  1.564294  4.515728 10.030333
99   1 0.0000  1.564294  9.934602  5.013378
100  1 0.0000  1.564294  9.934602 10.030333
101  1 0.0000  1.564294 15.353475  5.013378
102  1 0.0000  1.564294 15.353475 10.030333
103  1 0.0000  1.564294 20.772349  5.013378
104  1 0.0000  1.564294 20.772349 10.030333
105  1 0.0000  4.692882  4.515728  5.013378
106  1 0.0000  4.692882  4.515728 10.030333
107  1 0.0000  4.692882  9.934602  5.013378
108  1 0.0000  4.692882  9.934602 10.030333
109  1 0.0000  4.692882 15.353475  5.013378
110  1 0.0000  4.692882 15.353475 10.030333
111  1 0.0000  4.692882 20.772349  5.013378
112  1 0.0000  4.692882 20.772349 10.030333
113  1 0.0000  7.821470  4.515728  5.013378
114  1 0.0000  7.821470  4.515728 10.030333
115  1 0.0000  7.821470  9.934602  5.013378
116  1 0.0000  7.821470  9.934602 10.030333
117  1 0.0000  7.821470 15.353475  5.013378
118  1 0.0000  7.821470 15.353475 10.030333
119  1 0.0000  7.821470 20.772349  5.013378
120  1 0.0000  7.821470 20.772349 10.030333
121  1 0.0000 10.950058  4.515728  5.013378
122  1 0.0000 10.950058  4.515728 10.030333
123  1 0.0000 10.950058  9.934602  5.013378
124  1 0.0000 10.950058  9.934602 10.030333
125  1 0.0000 10.950058 15.353475  5.013378
126  1 0.0000 10.950058 15.353475 10.030333
127  1 0.0000 10.950058 20.772349  5.013378
128  1 0.0000 10.950058 20.772349 10.030333
129  2 0.0000  1.564294  0.903146  4.418497
130  2 0.0000  1.564294  0.903146  9.435452
131  2 0.0000  1.564294  6.322019  4.418497
132  2 0.0000  1.564294  6.322019  9.435452
133  2 0.0000  1.564294 11.740893  4.418497
134  2 0.0000  1.564294 11.740893  9.435452
135  2 0.0000  1.564294 17.159766  4.418497
136  2 0.0000  1.564294 17.159766  9.435452
137  2 0.0000  4.692882  0.903146  4.418497
138  2 0.0000  4.692882  0.903146  9.435452
139  2 0.0000  4.692882  6.322019  4.418497
140  2 0.0000  4.692882  6.322019  9.435452
141  2 0.0000  4.692882 11.740893  4.418497
142  2 0.0000  4.692882 11.740893  9.435452
143  2 0.0000  4.692882 17.159766  4.418497
144  2 0.0000  4.692882 17.159766  9.435452
145  2 0.0000  7.821470  0.903146  4.418497
146  2 0.0000  7.821470  0.903146  9.435452
147  2 0.0000  7.821470  6.322019  4.418497
148  2 0.0000  7.821470  6.322019  9.435452
149  2 0.0000  7.821470 11.740893  4.418497
150  2 0.0000  7.821470 11.740893  9.435452
151  2 0.0000  7.821470 17.159766  4.418497
152  2 0.0000  7.821470 17.159766  9.435452
153  2 0.0000 10.950058  0.903146  4.418497
154  2 0.0000 10.950058  0.903146  9.435452
155  2 0.0000 10.950058  6.322019  4.418497
156  2 0.0000 10.950058  6.322019  9.435452
157  2 0.0000 10.950058 11.740893  4.418497
158  2 0.0000 10.950058 11.740893  9.435452
159  2 0.0000 10.950058 17.159766  4.418497
160  2 0.0000 10.950058 17.159766  9.435452
161  2 0.0000  0.000000  3.612582  4.418497
162  2 0.0000  0.000000  3.612582  9.435452
163  2 0.0000  0.000000  9.031456  4.418497
164  2 0.0000  0.000000  9.031456  9.435452
165  2 0.0000  0.000000 14.450330  4.418497
166  2 0.0000  0.000000 14.450330  9.435452
167  2 0.0000  0.000000 19.869203  4.418497
168  2 0.0000  0.000000 19.869203  9.435452
169  2 0.0000  3.128588  3.612582  4.418497
170  2 0.0000  3.128588  3.612582  9.435452
171  2 0.0000  3.128588  9.031456  4.418497
172  2 0.0000  3.128588  9.031456  9.435452
173  2 0.0000  3.128588 14.450330  4.418497
174  2 0.0000  3.128588 14.450330  9.435452
175  2 0.0000  3.128588 19.869203  4.418497
176  2 0.0000  3.128588 19.869203  9.435452
177  2 0.0000  6.257176  3.612582  4.418497
178  2 0.0000  6.257176  3.612582  9.435452
179  2 0.0000  6.257176  9.031456  4.418497
180  2 0.0000  6.257176  9.031456  9.435452
181  2 0.0000  6.257176 14.450330  4.418497
182  2 0.0000  6.257176 14.450330  9.435452
183  2 0.0000  6.257176 19.869203  4.418497
184  2 0.0000  6.257176 19.869203  9.435452
185  2 0.0000  9.385764  3.612582  4.418497
186  2 0.0000  9.385764  3.612582  9.435452
187  2 0.0000  9.385764  9.031456  4.418497
188  2 0.0000  9.385764  9.031456  9.435452
189  2 0.0000  9.385764 14.450330  4.418497
190  2 0.0000  9.385764 14.450330  9.435452
191  2 0.0000  9.385764 19.869203  4.418497
192  2 0.0000  9.385764 19.869203  9.435452
193  2 0.0000  0.000000  1.806291  1.910020
194  2 0.0000  0.000000  1.806291  6.926975
195  2 0.0000  0.000000  7.225165  1.910020
196  2 0.0000  0.000000  7.225165  6.926975
197  2 0.0000  0.000000 12.644038  1.910020
198  2 0.0000  0.000000 12.644038  6.926975
199  2 0.0000 12.514353 18.062912  1.910020
200  2 0.0000 12.514353 18.062912  6.926975
201  2 0.0000  3.128588  1.806291  1.910020
202  2 0.0000  3.128588  1.806291  6.926975
203  2 0.0000  3.128588  7.225165  1.910020
204  2 0.0000  3.128588  7.225165  6.926975
205  2 0.0000  3.128588 12.644038  1.910020
206  2 0.0000  3.128588 12.644038  6.926975
207  2 0.0000  3.128588 18.062912  1.910020
208  2 0.0000  3.128588 18.062912  6.926975
209  2 0.0000  6.257176  1.806291  1.910020
210  2 0.0000  6.257176  1.806291  6.926975
211  2 0.0000  6.257176  7.225165  1.910020
212  2 0.0000  6.257176  7.225165  6.926975
213  2 0.0000  6.257176 12.644038  1.910020
214  2 0.0000  6.257176 12.644038  6.926975
215  2 0.0000  6.257176 18.062912  1.910020
216  2 0.0000  6.257176 18.062912  6.926975
217  2 0.0000  9.385764  1.806291  1.910020
218  2 0.0000  9.385764  1.806291  6.926975
219  2 0.0000  9.385764  7.225165  1.910020
220  2 0.0000  9.385764  7.225165  6.926975
221  2 0.0000  9.385764 12.644038  1.910020
222  2 0.0000  9.385764 12.644038  6.926975
223  2 0.0000  9.385764 18.062912  1.910020
224  2 0.0000  9.385764 18.062912  6.926975
225  2 0.0000  1.564294  4.515728  1.910020
226  2 0.0000  1.564294  4.515728  6.926975
227  2 0.0000  1.564294  9.934602  1.910020
228  2 0.0000  1.564294  9.934602  6.926975
229  2 0.0000  1.564294 15.353475  1.910020
230  2 0.0000  1.564294 15.353475  6.926975
231  2 0.0000  1.564294 20.772349  1.910020
232  2 0.0000  1.564294 20.772349  6.926975
233  2 0.0000  4.692882  4.515728  1.910020
234  2 0.0000  4.692882  4.515728  6.926975
235  2 0.0000  4.692882  9.934602  1.910020
236  2 0.0000  4.692882  9.934602  6.926975
237  2 0.0000  4.692882 15.353475  1.910020
238  2 0.0000  4.692882 15.353475  6.926975
239  2 0.0000  4.692882 20.772349  1.910020
240  2 0.0000  4.692882 20.772349  6.926975
241  2 0.0000  7.821470  4.515728  1.910020
242  2 0.0000  7.821470  4.515728  6.926975
243  2 0.0000  7.821470  9.934602  1.910020
244  2 0.0000  7.821470  9.934602  6.926975
245  2 0.0000  7.821470 15.353475  1.910020
246  2 0.0000  7.821470 15.353475  6.926975
247  2 0.0000  7.821470 20.772349  1.910020
248  2 0.0000  7.821470 20.772349  6.926975
249  2 0.0000 10.950058  4.515728  1.910020
250  2 0.0000 10.950058  4.515728  6.926975
251  2 0.0000 10.950058  9.934602  1.910020
252  2 0.0000 10.950058  9.934602  6.926975
253  2 0.0000 10.950058 15.353475  1.910020
254  2 0.0000 10.950058 15.353475  6.926975
255  2 0.0000 10.950058 20.772349  1.910020
256  2 0.0000 10.950058 20.772349  6.926975

