Generated by pymatgen.io.lammps.data.LammpsData

144  atoms

  3  atom types

0.000000 9.884474  xlo xhi
0.000000 17.120411  ylo yhi
0.000000 10.955513  zlo zhi

Masses

1  26.981539
2  30.973762
3  15.999400

Atoms

1    1 0.0000 2.301173  0.000000  3.651838
2    1 0.0000 2.301173  8.560205  3.651838
3    1 0.0000 7.243410  0.000000  3.651838
4    1 0.0000 7.243410  8.560205  3.651838
5    1 0.0000 4.772292  4.280103  3.651838
6    1 0.0000 4.772292 12.840308  3.651838
7    1 0.0000 9.714528  4.280103  3.651838
8    1 0.0000 9.714528 12.840308  3.651838
9    1 0.0000 3.791650  1.992874  7.303675
10   1 0.0000 3.791650 10.553080  7.303675
11   1 0.0000 8.733887  1.992874  7.303675
12   1 0.0000 8.733887 10.553080  7.303675
13   1 0.0000 1.320532  6.272977  7.303675
14   1 0.0000 1.320532 14.833183  7.303675
15   1 0.0000 6.262769  6.272977  7.303675
16   1 0.0000 6.262769 14.833183  7.303675
17   1 0.0000 1.320532  2.287228  0.000000
18   1 0.0000 1.320532 10.847434  0.000000
19   1 0.0000 6.262769  2.287228  0.000000
20   1 0.0000 6.262769 10.847434  0.000000
21   1 0.0000 3.791650  6.567331  0.000000
22   1 0.0000 3.791650 15.127536  0.000000
23   1 0.0000 8.733887  6.567331  0.000000
24   1 0.0000 8.733887 15.127536  0.000000
25   2 0.0000 2.301637 -0.000000  9.129594
26   2 0.0000 2.301637  8.560205  9.129594
27   2 0.0000 7.243874 -0.000000  9.129594
28   2 0.0000 7.243874  8.560205  9.129594
29   2 0.0000 4.772755  4.280103  9.129594
30   2 0.0000 4.772755 12.840308  9.129594
31   2 0.0000 9.714992  4.280103  9.129594
32   2 0.0000 9.714992 12.840308  9.129594
33   2 0.0000 3.791419  1.993276  1.825919
34   2 0.0000 3.791419 10.553481  1.825919
35   2 0.0000 8.733655  1.993276  1.825919
36   2 0.0000 8.733655 10.553481  1.825919
37   2 0.0000 1.320300  6.273379  1.825919
38   2 0.0000 1.320300 14.833584  1.825919
39   2 0.0000 6.262537  6.273379  1.825919
40   2 0.0000 6.262537 14.833584  1.825919
41   2 0.0000 1.320300  2.286827  5.477756
42   2 0.0000 1.320300 10.847032  5.477756
43   2 0.0000 6.262537  2.286827  5.477756
44   2 0.0000 6.262537 10.847032  5.477756
45   2 0.0000 3.791419  6.566930  5.477756
46   2 0.0000 3.791419 15.127135  5.477756
47   2 0.0000 8.733655  6.566930  5.477756
48   2 0.0000 8.733655 15.127135  5.477756
49   3 0.0000 0.254623  1.776472  1.279825
50   3 0.0000 0.254623 10.336678  1.279825
51   3 0.0000 5.196860  1.776472  1.279825
52   3 0.0000 5.196860 10.336678  1.279825
53   3 0.0000 2.725741  6.056575  1.279825
54   3 0.0000 2.725741 14.616781  1.279825
55   3 0.0000 7.667978  6.056575  1.279825
56   3 0.0000 7.667978 14.616781  1.279825
57   3 0.0000 0.805337  3.612376  4.931662
58   3 0.0000 0.805337 12.172582  4.931662
59   3 0.0000 5.747574  3.612376  4.931662
60   3 0.0000 5.747574 12.172582  4.931662
61   3 0.0000 3.276455  7.892479  4.931662
62   3 0.0000 3.276455 16.452684  4.931662
63   3 0.0000 8.218692  7.892479  4.931662
64   3 0.0000 8.218692 16.452684  4.931662
65   3 0.0000 3.882277  3.171357  8.583500
66   3 0.0000 3.882277 11.731562  8.583500
67   3 0.0000 8.824514  3.171357  8.583500
68   3 0.0000 8.824514 11.731562  8.583500
69   3 0.0000 1.411159  7.451459  8.583500
70   3 0.0000 1.411159 16.011665  8.583500
71   3 0.0000 6.353396  7.451459  8.583500
72   3 0.0000 6.353396 16.011665  8.583500
73   3 0.0000 2.725741  2.503630  6.023851
74   3 0.0000 2.725741 11.063836  6.023851
75   3 0.0000 7.667978  2.503630  6.023851
76   3 0.0000 7.667978 11.063836  6.023851
77   3 0.0000 0.254623  6.783733  6.023851
78   3 0.0000 0.254623 15.343938  6.023851
79   3 0.0000 5.196860  6.783733  6.023851
80   3 0.0000 5.196860 15.343938  6.023851
81   3 0.0000 3.276455  0.667726  2.372013
82   3 0.0000 3.276455  9.227932  2.372013
83   3 0.0000 8.218692  0.667726  2.372013
84   3 0.0000 8.218692  9.227932  2.372013
85   3 0.0000 0.805337  4.947829  2.372013
86   3 0.0000 0.805337 13.508035  2.372013
87   3 0.0000 5.747574  4.947829  2.372013
88   3 0.0000 5.747574 13.508035  2.372013
89   3 0.0000 1.411159  1.108746  9.675688
90   3 0.0000 1.411159  9.668951  9.675688
91   3 0.0000 6.353396  1.108746  9.675688
92   3 0.0000 6.353396  9.668951  9.675688
93   3 0.0000 3.882277  5.388849  9.675688
94   3 0.0000 3.882277 13.949054  9.675688
95   3 0.0000 8.824514  5.388849  9.675688
96   3 0.0000 8.824514 13.949054  9.675688
97   3 0.0000 1.331902  1.256842  4.352570
98   3 0.0000 1.331902  9.817048  4.352570
99   3 0.0000 6.274139  1.256842  4.352570
100  3 0.0000 6.274139  9.817048  4.352570
101  3 0.0000 3.803020  5.536945  4.352570
102  3 0.0000 3.803020 14.097150  4.352570
103  3 0.0000 8.745257  5.536945  4.352570
104  3 0.0000 8.745257 14.097150  4.352570
105  3 0.0000 3.187829  0.525040  8.004408
106  3 0.0000 3.187829  9.085245  8.004408
107  3 0.0000 8.130066  0.525040  8.004408
108  3 0.0000 8.130066  9.085245  8.004408
109  3 0.0000 0.716710  4.805142  8.004408
110  3 0.0000 0.716710 13.365348  8.004408
111  3 0.0000 5.658947  4.805142  8.004408
112  3 0.0000 5.658947 13.365348  8.004408
113  3 0.0000 2.893625  2.498221  0.700733
114  3 0.0000 2.893625 11.058426  0.700733
115  3 0.0000 7.835862  2.498221  0.700733
116  3 0.0000 7.835862 11.058426  0.700733
117  3 0.0000 0.422506  6.778323  0.700733
118  3 0.0000 0.422506 15.338529  0.700733
119  3 0.0000 5.364743  6.778323  0.700733
120  3 0.0000 5.364743 15.338529  0.700733
121  3 0.0000 3.803020  3.023260  2.951105
122  3 0.0000 3.803020 11.583466  2.951105
123  3 0.0000 8.745257  3.023260  2.951105
124  3 0.0000 8.745257 11.583466  2.951105
125  3 0.0000 1.331902  7.303363  2.951105
126  3 0.0000 1.331902 15.863569  2.951105
127  3 0.0000 6.274139  7.303363  2.951105
128  3 0.0000 6.274139 15.863569  2.951105
129  3 0.0000 0.716710  3.755063 10.254780
130  3 0.0000 0.716710 12.315268 10.254780
131  3 0.0000 5.658947  3.755063 10.254780
132  3 0.0000 5.658947 12.315268 10.254780
133  3 0.0000 3.187829  8.035166 10.254780
134  3 0.0000 3.187829 16.595371 10.254780
135  3 0.0000 8.130066  8.035166 10.254780
136  3 0.0000 8.130066 16.595371 10.254780
137  3 0.0000 0.422506  1.781882  6.602942
138  3 0.0000 0.422506 10.342087  6.602942
139  3 0.0000 5.364743  1.781882  6.602942
140  3 0.0000 5.364743 10.342087  6.602942
141  3 0.0000 2.893625  6.061985  6.602942
142  3 0.0000 2.893625 14.622190  6.602942
143  3 0.0000 7.835862  6.061985  6.602942
144  3 0.0000 7.835862 14.622190  6.602942

