Generated by pymatgen.io.lammps.data.LammpsData

5250  atoms

   3  atom types

0.000000 68.918117  xlo xhi
0.000000 35.098838  ylo yhi
0.000000 31.118598  zlo zhi
59.310863 59.310861 16.234570  xy xz yz

Masses

1  137.3270
2   10.8110
3   15.9994

Atoms

1     1 0.0000  31.865279  8.722165  5.287425
2     1 0.0000  43.727451 11.969078 11.511144
3     1 0.0000  55.589623 15.215992 17.734864
4     1 0.0000  67.451795 18.462906 23.958584
5     1 0.0000  79.313967 21.709820 30.182303
6     1 0.0000  43.727451 15.741932  5.287425
7     1 0.0000  55.589624 18.988846 11.511144
8     1 0.0000  67.451796 22.235760 17.734864
9     1 0.0000  79.313968 25.482674 23.958584
10    1 0.0000  91.176140 28.729588 30.182303
11    1 0.0000  55.589624 22.761700  5.287425
12    1 0.0000  67.451796 26.008614 11.511144
13    1 0.0000  79.313968 29.255528 17.734864
14    1 0.0000  91.176140 32.502442 23.958584
15    1 0.0000 103.038313 35.749355 30.182303
16    1 0.0000  67.451797 29.781467  5.287425
17    1 0.0000  79.313969 33.028381 11.511144
18    1 0.0000  91.176141 36.275295 17.734864
19    1 0.0000 103.038313 39.522209 23.958584
20    1 0.0000 114.900485 42.769123 30.182303
21    1 0.0000  79.313969 36.801235  5.287425
22    1 0.0000  91.176141 40.048149 11.511144
23    1 0.0000 103.038313 43.295063 17.734864
24    1 0.0000 114.900486 46.541977 23.958584
25    1 0.0000 126.762658 49.788891 30.182303
26    1 0.0000  45.648902  8.722165  5.287425
27    1 0.0000  57.511074 11.969078 11.511144
28    1 0.0000  69.373247 15.215992 17.734864
29    1 0.0000  81.235419 18.462906 23.958584
30    1 0.0000  93.097591 21.709820 30.182303
31    1 0.0000  57.511075 15.741932  5.287425
32    1 0.0000  69.373247 18.988846 11.511144
33    1 0.0000  81.235419 22.235760 17.734864
34    1 0.0000  93.097591 25.482674 23.958584
35    1 0.0000 104.959763 28.729588 30.182303
36    1 0.0000  69.373247 22.761700  5.287425
37    1 0.0000  81.235420 26.008614 11.511144
38    1 0.0000  93.097592 29.255528 17.734864
39    1 0.0000 104.959764 32.502442 23.958584
40    1 0.0000 116.821936 35.749355 30.182303
41    1 0.0000  81.235420 29.781467  5.287425
42    1 0.0000  93.097592 33.028381 11.511144
43    1 0.0000 104.959764 36.275295 17.734864
44    1 0.0000 116.821936 39.522209 23.958584
45    1 0.0000 128.684109 42.769123 30.182303
46    1 0.0000  93.097593 36.801235  5.287425
47    1 0.0000 104.959765 40.048149 11.511144
48    1 0.0000 116.821937 43.295063 17.734864
49    1 0.0000 128.684109 46.541977 23.958584
50    1 0.0000 140.546281 49.788891 30.182303
51    1 0.0000  59.432526  8.722165  5.287425
52    1 0.0000  71.294698 11.969078 11.511144
53    1 0.0000  83.156870 15.215992 17.734864
54    1 0.0000  95.019042 18.462906 23.958584
55    1 0.0000 106.881214 21.709820 30.182303
56    1 0.0000  71.294698 15.741932  5.287425
57    1 0.0000  83.156870 18.988846 11.511144
58    1 0.0000  95.019043 22.235760 17.734864
59    1 0.0000 106.881215 25.482674 23.958584
60    1 0.0000 118.743387 28.729588 30.182303
61    1 0.0000  83.156871 22.761700  5.287425
62    1 0.0000  95.019043 26.008614 11.511144
63    1 0.0000 106.881215 29.255528 17.734864
64    1 0.0000 118.743387 32.502442 23.958584
65    1 0.0000 130.605559 35.749355 30.182303
66    1 0.0000  95.019044 29.781467  5.287425
67    1 0.0000 106.881216 33.028381 11.511144
68    1 0.0000 118.743388 36.275295 17.734864
69    1 0.0000 130.605560 39.522209 23.958584
70    1 0.0000 142.467732 42.769123 30.182303
71    1 0.0000 106.881216 36.801235  5.287425
72    1 0.0000 118.743388 40.048149 11.511144
73    1 0.0000 130.605560 43.295063 17.734864
74    1 0.0000 142.467732 46.541977 23.958584
75    1 0.0000 154.329905 49.788891 30.182303
76    1 0.0000  73.216149  8.722165  5.287425
77    1 0.0000  85.078321 11.969078 11.511144
78    1 0.0000  96.940494 15.215992 17.734864
79    1 0.0000 108.802666 18.462906 23.958584
80    1 0.0000 120.664838 21.709820 30.182303
81    1 0.0000  85.078322 15.741932  5.287425
82    1 0.0000  96.940494 18.988846 11.511144
83    1 0.0000 108.802666 22.235760 17.734864
84    1 0.0000 120.664838 25.482674 23.958584
85    1 0.0000 132.527010 28.729588 30.182303
86    1 0.0000  96.940494 22.761700  5.287425
87    1 0.0000 108.802667 26.008614 11.511144
88    1 0.0000 120.664839 29.255528 17.734864
89    1 0.0000 132.527011 32.502442 23.958584
90    1 0.0000 144.389183 35.749355 30.182303
91    1 0.0000 108.802667 29.781467  5.287425
92    1 0.0000 120.664839 33.028381 11.511144
93    1 0.0000 132.527011 36.275295 17.734864
94    1 0.0000 144.389183 39.522209 23.958584
95    1 0.0000 156.251356 42.769123 30.182303
96    1 0.0000 120.664840 36.801235  5.287425
97    1 0.0000 132.527012 40.048149 11.511144
98    1 0.0000 144.389184 43.295063 17.734864
99    1 0.0000 156.251356 46.541977 23.958584
100   1 0.0000 168.113528 49.788891 30.182303
101   1 0.0000  86.999773  8.722165  5.287425
102   1 0.0000  98.861945 11.969078 11.511144
103   1 0.0000 110.724117 15.215992 17.734864
104   1 0.0000 122.586289 18.462906 23.958584
105   1 0.0000 134.448461 21.709820 30.182303
106   1 0.0000  98.861945 15.741932  5.287425
107   1 0.0000 110.724117 18.988846 11.511144
108   1 0.0000 122.586290 22.235760 17.734864
109   1 0.0000 134.448462 25.482674 23.958584
110   1 0.0000 146.310634 28.729588 30.182303
111   1 0.0000 110.724118 22.761700  5.287425
112   1 0.0000 122.586290 26.008614 11.511144
113   1 0.0000 134.448462 29.255528 17.734864
114   1 0.0000 146.310634 32.502442 23.958584
115   1 0.0000 158.172806 35.749355 30.182303
116   1 0.0000 122.586290 29.781467  5.287425
117   1 0.0000 134.448463 33.028381 11.511144
118   1 0.0000 146.310635 36.275295 17.734864
119   1 0.0000 158.172807 39.522209 23.958584
120   1 0.0000 170.034979 42.769123 30.182303
121   1 0.0000 134.448463 36.801235  5.287425
122   1 0.0000 146.310635 40.048149 11.511144
123   1 0.0000 158.172807 43.295063 17.734864
124   1 0.0000 170.034979 46.541977 23.958584
125   1 0.0000 181.897152 49.788891 30.182303
126   1 0.0000  24.396673  6.677858  4.048155
127   1 0.0000  36.258846  9.924772 10.271874
128   1 0.0000  48.121018 13.171686 16.495594
129   1 0.0000  59.983190 16.418600 22.719314
130   1 0.0000  71.845362 19.665513 28.943033
131   1 0.0000  36.258846 13.697625  4.048155
132   1 0.0000  48.121018 16.944539 10.271874
133   1 0.0000  59.983190 20.191453 16.495594
134   1 0.0000  71.845362 23.438367 22.719314
135   1 0.0000  83.707535 26.685281 28.943033
136   1 0.0000  48.121019 20.717393  4.048155
137   1 0.0000  59.983191 23.964307 10.271874
138   1 0.0000  71.845363 27.211221 16.495594
139   1 0.0000  83.707535 30.458135 22.719314
140   1 0.0000  95.569707 33.705049 28.943033
141   1 0.0000  59.983191 27.737161  4.048155
142   1 0.0000  71.845363 30.984075 10.271874
143   1 0.0000  83.707535 34.230988 16.495594
144   1 0.0000  95.569708 37.477902 22.719314
145   1 0.0000 107.431880 40.724816 28.943033
146   1 0.0000  71.845364 34.756928  4.048155
147   1 0.0000  83.707536 38.003842 10.271874
148   1 0.0000  95.569708 41.250756 16.495594
149   1 0.0000 107.431880 44.497670 22.719314
150   1 0.0000 119.294052 47.744584 28.943033
151   1 0.0000  38.180297  6.677858  4.048155
152   1 0.0000  50.042469  9.924772 10.271874
153   1 0.0000  61.904641 13.171686 16.495594
154   1 0.0000  73.766813 16.418600 22.719314
155   1 0.0000  85.628985 19.665513 28.943033
156   1 0.0000  50.042470 13.697625  4.048155
157   1 0.0000  61.904642 16.944539 10.271874
158   1 0.0000  73.766814 20.191453 16.495594
159   1 0.0000  85.628986 23.438367 22.719314
160   1 0.0000  97.491158 26.685281 28.943033
161   1 0.0000  61.904642 20.717393  4.048155
162   1 0.0000  73.766814 23.964307 10.271874
163   1 0.0000  85.628986 27.211221 16.495594
164   1 0.0000  97.491158 30.458135 22.719314
165   1 0.0000 109.353331 33.705049 28.943033
166   1 0.0000  73.766815 27.737161  4.048155
167   1 0.0000  85.628987 30.984075 10.271874
168   1 0.0000  97.491159 34.230988 16.495594
169   1 0.0000 109.353331 37.477902 22.719314
170   1 0.0000 121.215503 40.724816 28.943033
171   1 0.0000  85.628987 34.756928  4.048155
172   1 0.0000  97.491159 38.003842 10.271874
173   1 0.0000 109.353332 41.250756 16.495594
174   1 0.0000 121.215504 44.497670 22.719314
175   1 0.0000 133.077676 47.744584 28.943033
176   1 0.0000  51.963920  6.677858  4.048155
177   1 0.0000  63.826093  9.924772 10.271874
178   1 0.0000  75.688265 13.171686 16.495594
179   1 0.0000  87.550437 16.418600 22.719314
180   1 0.0000  99.412609 19.665513 28.943033
181   1 0.0000  63.826093 13.697625  4.048155
182   1 0.0000  75.688265 16.944539 10.271874
183   1 0.0000  87.550437 20.191453 16.495594
184   1 0.0000  99.412609 23.438367 22.719314
185   1 0.0000 111.274782 26.685281 28.943033
186   1 0.0000  75.688266 20.717393  4.048155
187   1 0.0000  87.550438 23.964307 10.271874
188   1 0.0000  99.412610 27.211221 16.495594
189   1 0.0000 111.274782 30.458135 22.719314
190   1 0.0000 123.136954 33.705049 28.943033
191   1 0.0000  87.550438 27.737161  4.048155
192   1 0.0000  99.412610 30.984075 10.271874
193   1 0.0000 111.274782 34.230988 16.495594
194   1 0.0000 123.136955 37.477902 22.719314
195   1 0.0000 134.999127 40.724816 28.943033
196   1 0.0000  99.412611 34.756928  4.048155
197   1 0.0000 111.274783 38.003842 10.271874
198   1 0.0000 123.136955 41.250756 16.495594
199   1 0.0000 134.999127 44.497670 22.719314
200   1 0.0000 146.861299 47.744584 28.943033
201   1 0.0000  65.747544  6.677858  4.048155
202   1 0.0000  77.609716  9.924772 10.271874
203   1 0.0000  89.471888 13.171686 16.495594
204   1 0.0000 101.334060 16.418600 22.719314
205   1 0.0000 113.196232 19.665513 28.943033
206   1 0.0000  77.609716 13.697625  4.048155
207   1 0.0000  89.471889 16.944539 10.271874
208   1 0.0000 101.334061 20.191453 16.495594
209   1 0.0000 113.196233 23.438367 22.719314
210   1 0.0000 125.058405 26.685281 28.943033
211   1 0.0000  89.471889 20.717393  4.048155
212   1 0.0000 101.334061 23.964307 10.271874
213   1 0.0000 113.196233 27.211221 16.495594
214   1 0.0000 125.058405 30.458135 22.719314
215   1 0.0000 136.920578 33.705049 28.943033
216   1 0.0000 101.334062 27.737161  4.048155
217   1 0.0000 113.196234 30.984075 10.271874
218   1 0.0000 125.058406 34.230988 16.495594
219   1 0.0000 136.920578 37.477902 22.719314
220   1 0.0000 148.782750 40.724816 28.943033
221   1 0.0000 113.196234 34.756928  4.048155
222   1 0.0000 125.058406 38.003842 10.271874
223   1 0.0000 136.920578 41.250756 16.495594
224   1 0.0000 148.782751 44.497670 22.719314
225   1 0.0000 160.644923 47.744584 28.943033
226   1 0.0000  79.531167  6.677858  4.048155
227   1 0.0000  91.393339  9.924772 10.271874
228   1 0.0000 103.255512 13.171686 16.495594
229   1 0.0000 115.117684 16.418600 22.719314
230   1 0.0000 126.979856 19.665513 28.943033
231   1 0.0000  91.393340 13.697625  4.048155
232   1 0.0000 103.255512 16.944539 10.271874
233   1 0.0000 115.117684 20.191453 16.495594
234   1 0.0000 126.979856 23.438367 22.719314
235   1 0.0000 138.842028 26.685281 28.943033
236   1 0.0000 103.255512 20.717393  4.048155
237   1 0.0000 115.117685 23.964307 10.271874
238   1 0.0000 126.979857 27.211221 16.495594
239   1 0.0000 138.842029 30.458135 22.719314
240   1 0.0000 150.704201 33.705049 28.943033
241   1 0.0000 115.117685 27.737161  4.048155
242   1 0.0000 126.979857 30.984075 10.271874
243   1 0.0000 138.842029 34.230988 16.495594
244   1 0.0000 150.704201 37.477902 22.719314
245   1 0.0000 162.566374 40.724816 28.943033
246   1 0.0000 126.979858 34.756928  4.048155
247   1 0.0000 138.842030 38.003842 10.271874
248   1 0.0000 150.704202 41.250756 16.495594
249   1 0.0000 162.566374 44.497670 22.719314
250   1 0.0000 174.428546 47.744584 28.943033
251   1 0.0000   5.642689  1.544517  0.936295
252   1 0.0000  17.504861  4.791431  7.160014
253   1 0.0000  29.367034  8.038345 13.383734
254   1 0.0000  41.229206 11.285259 19.607454
255   1 0.0000  53.091378 14.532173 25.831173
256   1 0.0000  17.504862  8.564285  0.936295
257   1 0.0000  29.367034 11.811199  7.160014
258   1 0.0000  41.229206 15.058112 13.383734
259   1 0.0000  53.091378 18.305026 19.607454
260   1 0.0000  64.953550 21.551940 25.831173
261   1 0.0000  29.367035 15.584052  0.936295
262   1 0.0000  41.229207 18.830966  7.160014
263   1 0.0000  53.091379 22.077880 13.383734
264   1 0.0000  64.953551 25.324794 19.607454
265   1 0.0000  76.815723 28.571708 25.831173
266   1 0.0000  41.229207 22.603820  0.936295
267   1 0.0000  53.091379 25.850734  7.160014
268   1 0.0000  64.953551 29.097648 13.383734
269   1 0.0000  76.815724 32.344562 19.607454
270   1 0.0000  88.677896 35.591476 25.831173
271   1 0.0000  53.091380 29.623588  0.936295
272   1 0.0000  64.953552 32.870501  7.160014
273   1 0.0000  76.815724 36.117415 13.383734
274   1 0.0000  88.677896 39.364329 19.607454
275   1 0.0000 100.540068 42.611243 25.831173
276   1 0.0000  19.426313  1.544517  0.936295
277   1 0.0000  31.288485  4.791431  7.160014
278   1 0.0000  43.150657  8.038345 13.383734
279   1 0.0000  55.012829 11.285259 19.607454
280   1 0.0000  66.875001 14.532173 25.831173
281   1 0.0000  31.288485  8.564285  0.936295
282   1 0.0000  43.150658 11.811199  7.160014
283   1 0.0000  55.012830 15.058112 13.383734
284   1 0.0000  66.875002 18.305026 19.607454
285   1 0.0000  78.737174 21.551940 25.831173
286   1 0.0000  43.150658 15.584052  0.936295
287   1 0.0000  55.012830 18.830966  7.160014
288   1 0.0000  66.875002 22.077880 13.383734
289   1 0.0000  78.737174 25.324794 19.607454
290   1 0.0000  90.599347 28.571708 25.831173
291   1 0.0000  55.012831 22.603820  0.936295
292   1 0.0000  66.875003 25.850734  7.160014
293   1 0.0000  78.737175 29.097648 13.383734
294   1 0.0000  90.599347 32.344562 19.607454
295   1 0.0000 102.461519 35.591476 25.831173
296   1 0.0000  66.875003 29.623588  0.936295
297   1 0.0000  78.737175 32.870501  7.160014
298   1 0.0000  90.599347 36.117415 13.383734
299   1 0.0000 102.461520 39.364329 19.607454
300   1 0.0000 114.323692 42.611243 25.831173
301   1 0.0000  33.209936  1.544517  0.936295
302   1 0.0000  45.072108  4.791431  7.160014
303   1 0.0000  56.934281  8.038345 13.383734
304   1 0.0000  68.796453 11.285259 19.607454
305   1 0.0000  80.658625 14.532173 25.831173
306   1 0.0000  45.072109  8.564285  0.936295
307   1 0.0000  56.934281 11.811199  7.160014
308   1 0.0000  68.796453 15.058112 13.383734
309   1 0.0000  80.658625 18.305026 19.607454
310   1 0.0000  92.520797 21.551940 25.831173
311   1 0.0000  56.934281 15.584052  0.936295
312   1 0.0000  68.796454 18.830966  7.160014
313   1 0.0000  80.658626 22.077880 13.383734
314   1 0.0000  92.520798 25.324794 19.607454
315   1 0.0000 104.382970 28.571708 25.831173
316   1 0.0000  68.796454 22.603820  0.936295
317   1 0.0000  80.658626 25.850734  7.160014
318   1 0.0000  92.520798 29.097648 13.383734
319   1 0.0000 104.382970 32.344562 19.607454
320   1 0.0000 116.245143 35.591476 25.831173
321   1 0.0000  80.658627 29.623588  0.936295
322   1 0.0000  92.520799 32.870501  7.160014
323   1 0.0000 104.382971 36.117415 13.383734
324   1 0.0000 116.245143 39.364329 19.607454
325   1 0.0000 128.107315 42.611243 25.831173
326   1 0.0000  46.993560  1.544517  0.936295
327   1 0.0000  58.855732  4.791431  7.160014
328   1 0.0000  70.717904  8.038345 13.383734
329   1 0.0000  82.580076 11.285259 19.607454
330   1 0.0000  94.442248 14.532173 25.831173
331   1 0.0000  58.855732  8.564285  0.936295
332   1 0.0000  70.717904 11.811199  7.160014
333   1 0.0000  82.580077 15.058112 13.383734
334   1 0.0000  94.442249 18.305026 19.607454
335   1 0.0000 106.304421 21.551940 25.831173
336   1 0.0000  70.717905 15.584052  0.936295
337   1 0.0000  82.580077 18.830966  7.160014
338   1 0.0000  94.442249 22.077880 13.383734
339   1 0.0000 106.304421 25.324794 19.607454
340   1 0.0000 118.166593 28.571708 25.831173
341   1 0.0000  82.580078 22.603820  0.936295
342   1 0.0000  94.442250 25.850734  7.160014
343   1 0.0000 106.304422 29.097648 13.383734
344   1 0.0000 118.166594 32.344562 19.607454
345   1 0.0000 130.028766 35.591476 25.831173
346   1 0.0000  94.442250 29.623588  0.936295
347   1 0.0000 106.304422 32.870501  7.160014
348   1 0.0000 118.166594 36.117415 13.383734
349   1 0.0000 130.028766 39.364329 19.607454
350   1 0.0000 141.890939 42.611243 25.831173
351   1 0.0000  60.777183  1.544517  0.936295
352   1 0.0000  72.639355  4.791431  7.160014
353   1 0.0000  84.501528  8.038345 13.383734
354   1 0.0000  96.363700 11.285259 19.607454
355   1 0.0000 108.225872 14.532173 25.831173
356   1 0.0000  72.639356  8.564285  0.936295
357   1 0.0000  84.501528 11.811199  7.160014
358   1 0.0000  96.363700 15.058112 13.383734
359   1 0.0000 108.225872 18.305026 19.607454
360   1 0.0000 120.088044 21.551940 25.831173
361   1 0.0000  84.501528 15.584052  0.936295
362   1 0.0000  96.363701 18.830966  7.160014
363   1 0.0000 108.225873 22.077880 13.383734
364   1 0.0000 120.088045 25.324794 19.607454
365   1 0.0000 131.950217 28.571708 25.831173
366   1 0.0000  96.363701 22.603820  0.936295
367   1 0.0000 108.225873 25.850734  7.160014
368   1 0.0000 120.088045 29.097648 13.383734
369   1 0.0000 131.950217 32.344562 19.607454
370   1 0.0000 143.812390 35.591476 25.831173
371   1 0.0000 108.225874 29.623588  0.936295
372   1 0.0000 120.088046 32.870501  7.160014
373   1 0.0000 131.950218 36.117415 13.383734
374   1 0.0000 143.812390 39.364329 19.607454
375   1 0.0000 155.674562 42.611243 25.831173
376   1 0.0000  13.111295  3.588824  2.175565
377   1 0.0000  24.973467  6.835738  8.399285
378   1 0.0000  36.835639 10.082652 14.623004
379   1 0.0000  48.697811 13.329566 20.846724
380   1 0.0000  60.559983 16.576479 27.070444
381   1 0.0000  24.973467 10.608591  2.175565
382   1 0.0000  36.835639 13.855505  8.399285
383   1 0.0000  48.697812 17.102419 14.623004
384   1 0.0000  60.559984 20.349333 20.846724
385   1 0.0000  72.422156 23.596247 27.070444
386   1 0.0000  36.835640 17.628359  2.175565
387   1 0.0000  48.697812 20.875273  8.399285
388   1 0.0000  60.559984 24.122187 14.623004
389   1 0.0000  72.422156 27.369101 20.846724
390   1 0.0000  84.284328 30.616015 27.070444
391   1 0.0000  48.697812 24.648127  2.175565
392   1 0.0000  60.559985 27.895041  8.399285
393   1 0.0000  72.422157 31.141954 14.623004
394   1 0.0000  84.284329 34.388868 20.846724
395   1 0.0000  96.146501 37.635782 27.070444
396   1 0.0000  60.559985 31.667894  2.175565
397   1 0.0000  72.422157 34.914808  8.399285
398   1 0.0000  84.284329 38.161722 14.623004
399   1 0.0000  96.146501 41.408636 20.846724
400   1 0.0000 108.008674 44.655550 27.070444
401   1 0.0000  26.894918  3.588824  2.175565
402   1 0.0000  38.757090  6.835738  8.399285
403   1 0.0000  50.619262 10.082652 14.623004
404   1 0.0000  62.481435 13.329566 20.846724
405   1 0.0000  74.343607 16.576479 27.070444
406   1 0.0000  38.757091 10.608591  2.175565
407   1 0.0000  50.619263 13.855505  8.399285
408   1 0.0000  62.481435 17.102419 14.623004
409   1 0.0000  74.343607 20.349333 20.846724
410   1 0.0000  86.205779 23.596247 27.070444
411   1 0.0000  50.619263 17.628359  2.175565
412   1 0.0000  62.481436 20.875273  8.399285
413   1 0.0000  74.343608 24.122187 14.623004
414   1 0.0000  86.205780 27.369101 20.846724
415   1 0.0000  98.067952 30.616015 27.070444
416   1 0.0000  62.481436 24.648127  2.175565
417   1 0.0000  74.343608 27.895041  8.399285
418   1 0.0000  86.205780 31.141954 14.623004
419   1 0.0000  98.067952 34.388868 20.846724
420   1 0.0000 109.930124 37.635782 27.070444
421   1 0.0000  74.343609 31.667894  2.175565
422   1 0.0000  86.205781 34.914808  8.399285
423   1 0.0000  98.067953 38.161722 14.623004
424   1 0.0000 109.930125 41.408636 20.846724
425   1 0.0000 121.792297 44.655550 27.070444
426   1 0.0000  40.678542  3.588824  2.175565
427   1 0.0000  52.540714  6.835738  8.399285
428   1 0.0000  64.402886 10.082652 14.623004
429   1 0.0000  76.265058 13.329566 20.846724
430   1 0.0000  88.127230 16.576479 27.070444
431   1 0.0000  52.540714 10.608591  2.175565
432   1 0.0000  64.402886 13.855505  8.399285
433   1 0.0000  76.265059 17.102419 14.623004
434   1 0.0000  88.127231 20.349333 20.846724
435   1 0.0000  99.989403 23.596247 27.070444
436   1 0.0000  64.402887 17.628359  2.175565
437   1 0.0000  76.265059 20.875273  8.399285
438   1 0.0000  88.127231 24.122187 14.623004
439   1 0.0000  99.989403 27.369101 20.846724
440   1 0.0000 111.851575 30.616015 27.070444
441   1 0.0000  76.265059 24.648127  2.175565
442   1 0.0000  88.127232 27.895041  8.399285
443   1 0.0000  99.989404 31.141954 14.623004
444   1 0.0000 111.851576 34.388868 20.846724
445   1 0.0000 123.713748 37.635782 27.070444
446   1 0.0000  88.127232 31.667894  2.175565
447   1 0.0000  99.989404 34.914808  8.399285
448   1 0.0000 111.851576 38.161722 14.623004
449   1 0.0000 123.713748 41.408636 20.846724
450   1 0.0000 135.575921 44.655550 27.070444
451   1 0.0000  54.462165  3.588824  2.175565
452   1 0.0000  66.324337  6.835738  8.399285
453   1 0.0000  78.186509 10.082652 14.623004
454   1 0.0000  90.048682 13.329566 20.846724
455   1 0.0000 101.910854 16.576479 27.070444
456   1 0.0000  66.324338 10.608591  2.175565
457   1 0.0000  78.186510 13.855505  8.399285
458   1 0.0000  90.048682 17.102419 14.623004
459   1 0.0000 101.910854 20.349333 20.846724
460   1 0.0000 113.773026 23.596247 27.070444
461   1 0.0000  78.186510 17.628359  2.175565
462   1 0.0000  90.048682 20.875273  8.399285
463   1 0.0000 101.910855 24.122187 14.623004
464   1 0.0000 113.773027 27.369101 20.846724
465   1 0.0000 125.635199 30.616015 27.070444
466   1 0.0000  90.048683 24.648127  2.175565
467   1 0.0000 101.910855 27.895041  8.399285
468   1 0.0000 113.773027 31.141954 14.623004
469   1 0.0000 125.635199 34.388868 20.846724
470   1 0.0000 137.497371 37.635782 27.070444
471   1 0.0000 101.910855 31.667894  2.175565
472   1 0.0000 113.773028 34.914808  8.399285
473   1 0.0000 125.635200 38.161722 14.623004
474   1 0.0000 137.497372 41.408636 20.846724
475   1 0.0000 149.359544 44.655550 27.070444
476   1 0.0000  68.245789  3.588824  2.175565
477   1 0.0000  80.107961  6.835738  8.399285
478   1 0.0000  91.970133 10.082652 14.623004
479   1 0.0000 103.832305 13.329566 20.846724
480   1 0.0000 115.694477 16.576479 27.070444
481   1 0.0000  80.107961 10.608591  2.175565
482   1 0.0000  91.970133 13.855505  8.399285
483   1 0.0000 103.832305 17.102419 14.623004
484   1 0.0000 115.694478 20.349333 20.846724
485   1 0.0000 127.556650 23.596247 27.070444
486   1 0.0000  91.970134 17.628359  2.175565
487   1 0.0000 103.832306 20.875273  8.399285
488   1 0.0000 115.694478 24.122187 14.623004
489   1 0.0000 127.556650 27.369101 20.846724
490   1 0.0000 139.418822 30.616015 27.070444
491   1 0.0000 103.832306 24.648127  2.175565
492   1 0.0000 115.694478 27.895041  8.399285
493   1 0.0000 127.556651 31.141954 14.623004
494   1 0.0000 139.418823 34.388868 20.846724
495   1 0.0000 151.280995 37.635782 27.070444
496   1 0.0000 115.694479 31.667894  2.175565
497   1 0.0000 127.556651 34.914808  8.399285
498   1 0.0000 139.418823 38.161722 14.623004
499   1 0.0000 151.280995 41.408636 20.846724
500   1 0.0000 163.143167 44.655550 27.070444
501   1 0.0000  28.130976  7.700011  4.667790
502   1 0.0000  39.993148 10.946925 10.891509
503   1 0.0000  51.855320 14.193839 17.115229
504   1 0.0000  63.717493 17.440753 23.338949
505   1 0.0000  75.579665 20.687667 29.562668
506   1 0.0000  39.993149 14.719779  4.667790
507   1 0.0000  51.855321 17.966693 10.891509
508   1 0.0000  63.717493 21.213607 17.115229
509   1 0.0000  75.579665 24.460521 23.338949
510   1 0.0000  87.441837 27.707434 29.562668
511   1 0.0000  51.855321 21.739546  4.667790
512   1 0.0000  63.717493 24.986460 10.891509
513   1 0.0000  75.579666 28.233374 17.115229
514   1 0.0000  87.441838 31.480288 23.338949
515   1 0.0000  99.304010 34.727202 29.562668
516   1 0.0000  63.717494 28.759314  4.667790
517   1 0.0000  75.579666 32.006228 10.891509
518   1 0.0000  87.441838 35.253142 17.115229
519   1 0.0000  99.304010 38.500056 23.338949
520   1 0.0000 111.166182 41.746970 29.562668
521   1 0.0000  75.579666 35.779082  4.667790
522   1 0.0000  87.441839 39.025996 10.891509
523   1 0.0000  99.304011 42.272910 17.115229
524   1 0.0000 111.166183 45.519823 23.338949
525   1 0.0000 123.028355 48.766737 29.562668
526   1 0.0000  41.914600  7.700011  4.667790
527   1 0.0000  53.776772 10.946925 10.891509
528   1 0.0000  65.638944 14.193839 17.115229
529   1 0.0000  77.501116 17.440753 23.338949
530   1 0.0000  89.363288 20.687667 29.562668
531   1 0.0000  53.776772 14.719779  4.667790
532   1 0.0000  65.638944 17.966693 10.891509
533   1 0.0000  77.501116 21.213607 17.115229
534   1 0.0000  89.363289 24.460521 23.338949
535   1 0.0000 101.225461 27.707434 29.562668
536   1 0.0000  65.638945 21.739546  4.667790
537   1 0.0000  77.501117 24.986460 10.891509
538   1 0.0000  89.363289 28.233374 17.115229
539   1 0.0000 101.225461 31.480288 23.338949
540   1 0.0000 113.087633 34.727202 29.562668
541   1 0.0000  77.501117 28.759314  4.667790
542   1 0.0000  89.363289 32.006228 10.891509
543   1 0.0000 101.225462 35.253142 17.115229
544   1 0.0000 113.087634 38.500056 23.338949
545   1 0.0000 124.949806 41.746970 29.562668
546   1 0.0000  89.363290 35.779082  4.667790
547   1 0.0000 101.225462 39.025996 10.891509
548   1 0.0000 113.087634 42.272910 17.115229
549   1 0.0000 124.949806 45.519823 23.338949
550   1 0.0000 136.811978 48.766737 29.562668
551   1 0.0000  55.698223  7.700011  4.667790
552   1 0.0000  67.560395 10.946925 10.891509
553   1 0.0000  79.422567 14.193839 17.115229
554   1 0.0000  91.284739 17.440753 23.338949
555   1 0.0000 103.146912 20.687667 29.562668
556   1 0.0000  67.560396 14.719779  4.667790
557   1 0.0000  79.422568 17.966693 10.891509
558   1 0.0000  91.284740 21.213607 17.115229
559   1 0.0000 103.146912 24.460521 23.338949
560   1 0.0000 115.009084 27.707434 29.562668
561   1 0.0000  79.422568 21.739546  4.667790
562   1 0.0000  91.284740 24.986460 10.891509
563   1 0.0000 103.146913 28.233374 17.115229
564   1 0.0000 115.009085 31.480288 23.338949
565   1 0.0000 126.871257 34.727202 29.562668
566   1 0.0000  91.284741 28.759314  4.667790
567   1 0.0000 103.146913 32.006228 10.891509
568   1 0.0000 115.009085 35.253142 17.115229
569   1 0.0000 126.871257 38.500056 23.338949
570   1 0.0000 138.733429 41.746970 29.562668
571   1 0.0000 103.146913 35.779082  4.667790
572   1 0.0000 115.009086 39.025996 10.891509
573   1 0.0000 126.871258 42.272910 17.115229
574   1 0.0000 138.733430 45.519823 23.338949
575   1 0.0000 150.595602 48.766737 29.562668
576   1 0.0000  69.481847  7.700011  4.667790
577   1 0.0000  81.344019 10.946925 10.891509
578   1 0.0000  93.206191 14.193839 17.115229
579   1 0.0000 105.068363 17.440753 23.338949
580   1 0.0000 116.930535 20.687667 29.562668
581   1 0.0000  81.344019 14.719779  4.667790
582   1 0.0000  93.206191 17.966693 10.891509
583   1 0.0000 105.068363 21.213607 17.115229
584   1 0.0000 116.930536 24.460521 23.338949
585   1 0.0000 128.792708 27.707434 29.562668
586   1 0.0000  93.206192 21.739546  4.667790
587   1 0.0000 105.068364 24.986460 10.891509
588   1 0.0000 116.930536 28.233374 17.115229
589   1 0.0000 128.792708 31.480288 23.338949
590   1 0.0000 140.654880 34.727202 29.562668
591   1 0.0000 105.068364 28.759314  4.667790
592   1 0.0000 116.930536 32.006228 10.891509
593   1 0.0000 128.792709 35.253142 17.115229
594   1 0.0000 140.654881 38.500056 23.338949
595   1 0.0000 152.517053 41.746970 29.562668
596   1 0.0000 116.930537 35.779082  4.667790
597   1 0.0000 128.792709 39.025996 10.891509
598   1 0.0000 140.654881 42.272910 17.115229
599   1 0.0000 152.517053 45.519823 23.338949
600   1 0.0000 164.379225 48.766737 29.562668
601   1 0.0000  83.265470  7.700011  4.667790
602   1 0.0000  95.127642 10.946925 10.891509
603   1 0.0000 106.989814 14.193839 17.115229
604   1 0.0000 118.851986 17.440753 23.338949
605   1 0.0000 130.714159 20.687667 29.562668
606   1 0.0000  95.127643 14.719779  4.667790
607   1 0.0000 106.989815 17.966693 10.891509
608   1 0.0000 118.851987 21.213607 17.115229
609   1 0.0000 130.714159 24.460521 23.338949
610   1 0.0000 142.576331 27.707434 29.562668
611   1 0.0000 106.989815 21.739546  4.667790
612   1 0.0000 118.851987 24.986460 10.891509
613   1 0.0000 130.714159 28.233374 17.115229
614   1 0.0000 142.576332 31.480288 23.338949
615   1 0.0000 154.438504 34.727202 29.562668
616   1 0.0000 118.851988 28.759314  4.667790
617   1 0.0000 130.714160 32.006228 10.891509
618   1 0.0000 142.576332 35.253142 17.115229
619   1 0.0000 154.438504 38.500056 23.338949
620   1 0.0000 166.300676 41.746970 29.562668
621   1 0.0000 130.714160 35.779082  4.667790
622   1 0.0000 142.576332 39.025996 10.891509
623   1 0.0000 154.438505 42.272910 17.115229
624   1 0.0000 166.300677 45.519823 23.338949
625   1 0.0000 178.162849 48.766737 29.562668
626   1 0.0000   9.376992  2.566670  1.555930
627   1 0.0000  21.239164  5.813584  7.779650
628   1 0.0000  33.101336  9.060498 14.003369
629   1 0.0000  44.963508 12.307412 20.227089
630   1 0.0000  56.825681 15.554326 26.450808
631   1 0.0000  21.239165  9.586438  1.555930
632   1 0.0000  33.101337 12.833352  7.779650
633   1 0.0000  44.963509 16.080266 14.003369
634   1 0.0000  56.825681 19.327180 20.227089
635   1 0.0000  68.687853 22.574094 26.450808
636   1 0.0000  33.101337 16.606206  1.555930
637   1 0.0000  44.963509 19.853120  7.779650
638   1 0.0000  56.825681 23.100033 14.003369
639   1 0.0000  68.687854 26.346947 20.227089
640   1 0.0000  80.550026 29.593861 26.450808
641   1 0.0000  44.963510 23.625973  1.555930
642   1 0.0000  56.825682 26.872887  7.779650
643   1 0.0000  68.687854 30.119801 14.003369
644   1 0.0000  80.550026 33.366715 20.227089
645   1 0.0000  92.412198 36.613629 26.450808
646   1 0.0000  56.825682 30.645741  1.555930
647   1 0.0000  68.687855 33.892655  7.779650
648   1 0.0000  80.550027 37.139569 14.003369
649   1 0.0000  92.412199 40.386483 20.227089
650   1 0.0000 104.274371 43.633397 26.450808
651   1 0.0000  23.160616  2.566670  1.555930
652   1 0.0000  35.022788  5.813584  7.779650
653   1 0.0000  46.884960  9.060498 14.003369
654   1 0.0000  58.747132 12.307412 20.227089
655   1 0.0000  70.609304 15.554326 26.450808
656   1 0.0000  35.022788  9.586438  1.555930
657   1 0.0000  46.884960 12.833352  7.779650
658   1 0.0000  58.747132 16.080266 14.003369
659   1 0.0000  70.609305 19.327180 20.227089
660   1 0.0000  82.471477 22.574094 26.450808
661   1 0.0000  46.884961 16.606206  1.555930
662   1 0.0000  58.747133 19.853120  7.779650
663   1 0.0000  70.609305 23.100033 14.003369
664   1 0.0000  82.471477 26.346947 20.227089
665   1 0.0000  94.333649 29.593861 26.450808
666   1 0.0000  58.747133 23.625973  1.555930
667   1 0.0000  70.609305 26.872887  7.779650
668   1 0.0000  82.471478 30.119801 14.003369
669   1 0.0000  94.333650 33.366715 20.227089
670   1 0.0000 106.195822 36.613629 26.450808
671   1 0.0000  70.609306 30.645741  1.555930
672   1 0.0000  82.471478 33.892655  7.779650
673   1 0.0000  94.333650 37.139569 14.003369
674   1 0.0000 106.195822 40.386483 20.227089
675   1 0.0000 118.057994 43.633397 26.450808
676   1 0.0000  36.944239  2.566670  1.555930
677   1 0.0000  48.806411  5.813584  7.779650
678   1 0.0000  60.668583  9.060498 14.003369
679   1 0.0000  72.530755 12.307412 20.227089
680   1 0.0000  84.392928 15.554326 26.450808
681   1 0.0000  48.806412  9.586438  1.555930
682   1 0.0000  60.668584 12.833352  7.779650
683   1 0.0000  72.530756 16.080266 14.003369
684   1 0.0000  84.392928 19.327180 20.227089
685   1 0.0000  96.255100 22.574094 26.450808
686   1 0.0000  60.668584 16.606206  1.555930
687   1 0.0000  72.530756 19.853120  7.779650
688   1 0.0000  84.392928 23.100033 14.003369
689   1 0.0000  96.255101 26.346947 20.227089
690   1 0.0000 108.117273 29.593861 26.450808
691   1 0.0000  72.530757 23.625973  1.555930
692   1 0.0000  84.392929 26.872887  7.779650
693   1 0.0000  96.255101 30.119801 14.003369
694   1 0.0000 108.117273 33.366715 20.227089
695   1 0.0000 119.979445 36.613629 26.450808
696   1 0.0000  84.392929 30.645741  1.555930
697   1 0.0000  96.255101 33.892655  7.779650
698   1 0.0000 108.117274 37.139569 14.003369
699   1 0.0000 119.979446 40.386483 20.227089
700   1 0.0000 131.841618 43.633397 26.450808
701   1 0.0000  50.727862  2.566670  1.555930
702   1 0.0000  62.590035  5.813584  7.779650
703   1 0.0000  74.452207  9.060498 14.003369
704   1 0.0000  86.314379 12.307412 20.227089
705   1 0.0000  98.176551 15.554326 26.450808
706   1 0.0000  62.590035  9.586438  1.555930
707   1 0.0000  74.452207 12.833352  7.779650
708   1 0.0000  86.314379 16.080266 14.003369
709   1 0.0000  98.176551 19.327180 20.227089
710   1 0.0000 110.038724 22.574094 26.450808
711   1 0.0000  74.452208 16.606206  1.555930
712   1 0.0000  86.314380 19.853120  7.779650
713   1 0.0000  98.176552 23.100033 14.003369
714   1 0.0000 110.038724 26.346947 20.227089
715   1 0.0000 121.900896 29.593861 26.450808
716   1 0.0000  86.314380 23.625973  1.555930
717   1 0.0000  98.176552 26.872887  7.779650
718   1 0.0000 110.038724 30.119801 14.003369
719   1 0.0000 121.900897 33.366715 20.227089
720   1 0.0000 133.763069 36.613629 26.450808
721   1 0.0000  98.176553 30.645741  1.555930
722   1 0.0000 110.038725 33.892655  7.779650
723   1 0.0000 121.900897 37.139569 14.003369
724   1 0.0000 133.763069 40.386483 20.227089
725   1 0.0000 145.625241 43.633397 26.450808
726   1 0.0000  64.511486  2.566670  1.555930
727   1 0.0000  76.373658  5.813584  7.779650
728   1 0.0000  88.235830  9.060498 14.003369
729   1 0.0000 100.098002 12.307412 20.227089
730   1 0.0000 111.960174 15.554326 26.450808
731   1 0.0000  76.373659  9.586438  1.555930
732   1 0.0000  88.235831 12.833352  7.779650
733   1 0.0000 100.098003 16.080266 14.003369
734   1 0.0000 111.960175 19.327180 20.227089
735   1 0.0000 123.822347 22.574094 26.450808
736   1 0.0000  88.235831 16.606206  1.555930
737   1 0.0000 100.098003 19.853120  7.779650
738   1 0.0000 111.960175 23.100033 14.003369
739   1 0.0000 123.822347 26.346947 20.227089
740   1 0.0000 135.684520 29.593861 26.450808
741   1 0.0000 100.098004 23.625973  1.555930
742   1 0.0000 111.960176 26.872887  7.779650
743   1 0.0000 123.822348 30.119801 14.003369
744   1 0.0000 135.684520 33.366715 20.227089
745   1 0.0000 147.546692 36.613629 26.450808
746   1 0.0000 111.960176 30.645741  1.555930
747   1 0.0000 123.822348 33.892655  7.779650
748   1 0.0000 135.684521 37.139569 14.003369
749   1 0.0000 147.546693 40.386483 20.227089
750   1 0.0000 159.408865 43.633397 26.450808
751   2 0.0000  20.590822  4.711879  2.248185
752   2 0.0000  32.452994  7.958792  8.471905
753   2 0.0000  44.315167 11.205706 14.695625
754   2 0.0000  56.177339 14.452620 20.919344
755   2 0.0000  68.039511 17.699534 27.143064
756   2 0.0000  32.452995 11.731646  2.248185
757   2 0.0000  44.315167 14.978560  8.471905
758   2 0.0000  56.177339 18.225474 14.695625
759   2 0.0000  68.039511 21.472388 20.919344
760   2 0.0000  79.901683 24.719302 27.143064
761   2 0.0000  44.315167 18.751414  2.248185
762   2 0.0000  56.177340 21.998328  8.471905
763   2 0.0000  68.039512 25.245242 14.695625
764   2 0.0000  79.901684 28.492156 20.919344
765   2 0.0000  91.763856 31.739069 27.143064
766   2 0.0000  56.177340 25.771181  2.248185
767   2 0.0000  68.039512 29.018095  8.471905
768   2 0.0000  79.901684 32.265009 14.695625
769   2 0.0000  91.763856 35.511923 20.919344
770   2 0.0000 103.626029 38.758837 27.143064
771   2 0.0000  68.039513 32.790949  2.248185
772   2 0.0000  79.901685 36.037863  8.471905
773   2 0.0000  91.763857 39.284777 14.695625
774   2 0.0000 103.626029 42.531691 20.919344
775   2 0.0000 115.488201 45.778605 27.143064
776   2 0.0000  34.374446  4.711879  2.248185
777   2 0.0000  46.236618  7.958792  8.471905
778   2 0.0000  58.098790 11.205706 14.695625
779   2 0.0000  69.960962 14.452620 20.919344
780   2 0.0000  81.823134 17.699534 27.143064
781   2 0.0000  46.236618 11.731646  2.248185
782   2 0.0000  58.098791 14.978560  8.471905
783   2 0.0000  69.960963 18.225474 14.695625
784   2 0.0000  81.823135 21.472388 20.919344
785   2 0.0000  93.685307 24.719302 27.143064
786   2 0.0000  58.098791 18.751414  2.248185
787   2 0.0000  69.960963 21.998328  8.471905
788   2 0.0000  81.823135 25.245242 14.695625
789   2 0.0000  93.685307 28.492156 20.919344
790   2 0.0000 105.547479 31.739069 27.143064
791   2 0.0000  69.960964 25.771181  2.248185
792   2 0.0000  81.823136 29.018095  8.471905
793   2 0.0000  93.685308 32.265009 14.695625
794   2 0.0000 105.547480 35.511923 20.919344
795   2 0.0000 117.409652 38.758837 27.143064
796   2 0.0000  81.823136 32.790949  2.248185
797   2 0.0000  93.685308 36.037863  8.471905
798   2 0.0000 105.547480 39.284777 14.695625
799   2 0.0000 117.409653 42.531691 20.919344
800   2 0.0000 129.271825 45.778605 27.143064
801   2 0.0000  48.158069  4.711879  2.248185
802   2 0.0000  60.020241  7.958792  8.471905
803   2 0.0000  71.882414 11.205706 14.695625
804   2 0.0000  83.744586 14.452620 20.919344
805   2 0.0000  95.606758 17.699534 27.143064
806   2 0.0000  60.020242 11.731646  2.248185
807   2 0.0000  71.882414 14.978560  8.471905
808   2 0.0000  83.744586 18.225474 14.695625
809   2 0.0000  95.606758 21.472388 20.919344
810   2 0.0000 107.468930 24.719302 27.143064
811   2 0.0000  71.882414 18.751414  2.248185
812   2 0.0000  83.744587 21.998328  8.471905
813   2 0.0000  95.606759 25.245242 14.695625
814   2 0.0000 107.468931 28.492156 20.919344
815   2 0.0000 119.331103 31.739069 27.143064
816   2 0.0000  83.744587 25.771181  2.248185
817   2 0.0000  95.606759 29.018095  8.471905
818   2 0.0000 107.468931 32.265009 14.695625
819   2 0.0000 119.331103 35.511923 20.919344
820   2 0.0000 131.193276 38.758837 27.143064
821   2 0.0000  95.606760 32.790949  2.248185
822   2 0.0000 107.468932 36.037863  8.471905
823   2 0.0000 119.331104 39.284777 14.695625
824   2 0.0000 131.193276 42.531691 20.919344
825   2 0.0000 143.055448 45.778605 27.143064
826   2 0.0000  61.941693  4.711879  2.248185
827   2 0.0000  73.803865  7.958792  8.471905
828   2 0.0000  85.666037 11.205706 14.695625
829   2 0.0000  97.528209 14.452620 20.919344
830   2 0.0000 109.390381 17.699534 27.143064
831   2 0.0000  73.803865 11.731646  2.248185
832   2 0.0000  85.666037 14.978560  8.471905
833   2 0.0000  97.528210 18.225474 14.695625
834   2 0.0000 109.390382 21.472388 20.919344
835   2 0.0000 121.252554 24.719302 27.143064
836   2 0.0000  85.666038 18.751414  2.248185
837   2 0.0000  97.528210 21.998328  8.471905
838   2 0.0000 109.390382 25.245242 14.695625
839   2 0.0000 121.252554 28.492156 20.919344
840   2 0.0000 133.114726 31.739069 27.143064
841   2 0.0000  97.528210 25.771181  2.248185
842   2 0.0000 109.390383 29.018095  8.471905
843   2 0.0000 121.252555 32.265009 14.695625
844   2 0.0000 133.114727 35.511923 20.919344
845   2 0.0000 144.976899 38.758837 27.143064
846   2 0.0000 109.390383 32.790949  2.248185
847   2 0.0000 121.252555 36.037863  8.471905
848   2 0.0000 133.114727 39.284777 14.695625
849   2 0.0000 144.976899 42.531691 20.919344
850   2 0.0000 156.839072 45.778605 27.143064
851   2 0.0000  75.725316  4.711879  2.248185
852   2 0.0000  87.587488  7.958792  8.471905
853   2 0.0000  99.449660 11.205706 14.695625
854   2 0.0000 111.311833 14.452620 20.919344
855   2 0.0000 123.174005 17.699534 27.143064
856   2 0.0000  87.587489 11.731646  2.248185
857   2 0.0000  99.449661 14.978560  8.471905
858   2 0.0000 111.311833 18.225474 14.695625
859   2 0.0000 123.174005 21.472388 20.919344
860   2 0.0000 135.036177 24.719302 27.143064
861   2 0.0000  99.449661 18.751414  2.248185
862   2 0.0000 111.311834 21.998328  8.471905
863   2 0.0000 123.174006 25.245242 14.695625
864   2 0.0000 135.036178 28.492156 20.919344
865   2 0.0000 146.898350 31.739069 27.143064
866   2 0.0000 111.311834 25.771181  2.248185
867   2 0.0000 123.174006 29.018095  8.471905
868   2 0.0000 135.036178 32.265009 14.695625
869   2 0.0000 146.898350 35.511923 20.919344
870   2 0.0000 158.760522 38.758837 27.143064
871   2 0.0000 123.174007 32.790949  2.248185
872   2 0.0000 135.036179 36.037863  8.471905
873   2 0.0000 146.898351 39.284777 14.695625
874   2 0.0000 158.760523 42.531691 20.919344
875   2 0.0000 170.622695 45.778605 27.143064
876   2 0.0000  20.120121  4.968066  4.662309
877   2 0.0000  31.982294  8.214980 10.886028
878   2 0.0000  43.844466 11.461894 17.109748
879   2 0.0000  55.706638 14.708808 23.333468
880   2 0.0000  67.568810 17.955722 29.557187
881   2 0.0000  31.982294 11.987834  4.662309
882   2 0.0000  43.844466 15.234748 10.886028
883   2 0.0000  55.706638 18.481662 17.109748
884   2 0.0000  67.568810 21.728576 23.333468
885   2 0.0000  79.430983 24.975490 29.557187
886   2 0.0000  43.844467 19.007602  4.662309
887   2 0.0000  55.706639 22.254516 10.886028
888   2 0.0000  67.568811 25.501430 17.109748
889   2 0.0000  79.430983 28.748343 23.333468
890   2 0.0000  91.293155 31.995257 29.557187
891   2 0.0000  55.706639 26.027369  4.662309
892   2 0.0000  67.568811 29.274283 10.886028
893   2 0.0000  79.430983 32.521197 17.109748
894   2 0.0000  91.293156 35.768111 23.333468
895   2 0.0000 103.155328 39.015025 29.557187
896   2 0.0000  67.568812 33.047137  4.662309
897   2 0.0000  79.430984 36.294051 10.886028
898   2 0.0000  91.293156 39.540965 17.109748
899   2 0.0000 103.155328 42.787879 23.333468
900   2 0.0000 115.017500 46.034793 29.557187
901   2 0.0000  33.903745  4.968066  4.662309
902   2 0.0000  45.765917  8.214980 10.886028
903   2 0.0000  57.628089 11.461894 17.109748
904   2 0.0000  69.490261 14.708808 23.333468
905   2 0.0000  81.352433 17.955722 29.557187
906   2 0.0000  45.765917 11.987834  4.662309
907   2 0.0000  57.628090 15.234748 10.886028
908   2 0.0000  69.490262 18.481662 17.109748
909   2 0.0000  81.352434 21.728576 23.333468
910   2 0.0000  93.214606 24.975490 29.557187
911   2 0.0000  57.628090 19.007602  4.662309
912   2 0.0000  69.490262 22.254516 10.886028
913   2 0.0000  81.352434 25.501430 17.109748
914   2 0.0000  93.214606 28.748343 23.333468
915   2 0.0000 105.076779 31.995257 29.557187
916   2 0.0000  69.490263 26.027369  4.662309
917   2 0.0000  81.352435 29.274283 10.886028
918   2 0.0000  93.214607 32.521197 17.109748
919   2 0.0000 105.076779 35.768111 23.333468
920   2 0.0000 116.938951 39.015025 29.557187
921   2 0.0000  81.352435 33.047137  4.662309
922   2 0.0000  93.214607 36.294051 10.886028
923   2 0.0000 105.076779 39.540965 17.109748
924   2 0.0000 116.938952 42.787879 23.333468
925   2 0.0000 128.801124 46.034793 29.557187
926   2 0.0000  47.687368  4.968066  4.662309
927   2 0.0000  59.549541  8.214980 10.886028
928   2 0.0000  71.411713 11.461894 17.109748
929   2 0.0000  83.273885 14.708808 23.333468
930   2 0.0000  95.136057 17.955722 29.557187
931   2 0.0000  59.549541 11.987834  4.662309
932   2 0.0000  71.411713 15.234748 10.886028
933   2 0.0000  83.273885 18.481662 17.109748
934   2 0.0000  95.136057 21.728576 23.333468
935   2 0.0000 106.998229 24.975490 29.557187
936   2 0.0000  71.411714 19.007602  4.662309
937   2 0.0000  83.273886 22.254516 10.886028
938   2 0.0000  95.136058 25.501430 17.109748
939   2 0.0000 106.998230 28.748343 23.333468
940   2 0.0000 118.860402 31.995257 29.557187
941   2 0.0000  83.273886 26.027369  4.662309
942   2 0.0000  95.136058 29.274283 10.886028
943   2 0.0000 106.998230 32.521197 17.109748
944   2 0.0000 118.860403 35.768111 23.333468
945   2 0.0000 130.722575 39.015025 29.557187
946   2 0.0000  95.136059 33.047137  4.662309
947   2 0.0000 106.998231 36.294051 10.886028
948   2 0.0000 118.860403 39.540965 17.109748
949   2 0.0000 130.722575 42.787879 23.333468
950   2 0.0000 142.584747 46.034793 29.557187
951   2 0.0000  61.470992  4.968066  4.662309
952   2 0.0000  73.333164  8.214980 10.886028
953   2 0.0000  85.195336 11.461894 17.109748
954   2 0.0000  97.057508 14.708808 23.333468
955   2 0.0000 108.919680 17.955722 29.557187
956   2 0.0000  73.333164 11.987834  4.662309
957   2 0.0000  85.195337 15.234748 10.886028
958   2 0.0000  97.057509 18.481662 17.109748
959   2 0.0000 108.919681 21.728576 23.333468
960   2 0.0000 120.781853 24.975490 29.557187
961   2 0.0000  85.195337 19.007602  4.662309
962   2 0.0000  97.057509 22.254516 10.886028
963   2 0.0000 108.919681 25.501430 17.109748
964   2 0.0000 120.781853 28.748343 23.333468
965   2 0.0000 132.644026 31.995257 29.557187
966   2 0.0000  97.057510 26.027369  4.662309
967   2 0.0000 108.919682 29.274283 10.886028
968   2 0.0000 120.781854 32.521197 17.109748
969   2 0.0000 132.644026 35.768111 23.333468
970   2 0.0000 144.506198 39.015025 29.557187
971   2 0.0000 108.919682 33.047137  4.662309
972   2 0.0000 120.781854 36.294051 10.886028
973   2 0.0000 132.644026 39.540965 17.109748
974   2 0.0000 144.506199 42.787879 23.333468
975   2 0.0000 156.368371 46.034793 29.557187
976   2 0.0000  75.254615  4.968066  4.662309
977   2 0.0000  87.116787  8.214980 10.886028
978   2 0.0000  98.978960 11.461894 17.109748
979   2 0.0000 110.841132 14.708808 23.333468
980   2 0.0000 122.703304 17.955722 29.557187
981   2 0.0000  87.116788 11.987834  4.662309
982   2 0.0000  98.978960 15.234748 10.886028
983   2 0.0000 110.841132 18.481662 17.109748
984   2 0.0000 122.703304 21.728576 23.333468
985   2 0.0000 134.565476 24.975490 29.557187
986   2 0.0000  98.978960 19.007602  4.662309
987   2 0.0000 110.841133 22.254516 10.886028
988   2 0.0000 122.703305 25.501430 17.109748
989   2 0.0000 134.565477 28.748343 23.333468
990   2 0.0000 146.427649 31.995257 29.557187
991   2 0.0000 110.841133 26.027369  4.662309
992   2 0.0000 122.703305 29.274283 10.886028
993   2 0.0000 134.565477 32.521197 17.109748
994   2 0.0000 146.427649 35.768111 23.333468
995   2 0.0000 158.289822 39.015025 29.557187
996   2 0.0000 122.703306 33.047137  4.662309
997   2 0.0000 134.565478 36.294051 10.886028
998   2 0.0000 146.427650 39.540965 17.109748
999   2 0.0000 158.289822 42.787879 23.333468
1000  2 0.0000 170.151994 46.034793 29.557187
1001  2 0.0000  19.845509  6.895568  3.137675
1002  2 0.0000  31.707681 10.142482  9.361394
1003  2 0.0000  43.569853 13.389396 15.585114
1004  2 0.0000  55.432026 16.636310 21.808834
1005  2 0.0000  67.294198 19.883224 28.032553
1006  2 0.0000  31.707682 13.915336  3.137675
1007  2 0.0000  43.569854 17.162250  9.361394
1008  2 0.0000  55.432026 20.409164 15.585114
1009  2 0.0000  67.294198 23.656077 21.808834
1010  2 0.0000  79.156370 26.902991 28.032553
1011  2 0.0000  43.569854 20.935103  3.137675
1012  2 0.0000  55.432027 24.182017  9.361394
1013  2 0.0000  67.294199 27.428931 15.585114
1014  2 0.0000  79.156371 30.675845 21.808834
1015  2 0.0000  91.018543 33.922759 28.032553
1016  2 0.0000  55.432027 27.954871  3.137675
1017  2 0.0000  67.294199 31.201785  9.361394
1018  2 0.0000  79.156371 34.448699 15.585114
1019  2 0.0000  91.018543 37.695613 21.808834
1020  2 0.0000 102.880716 40.942527 28.032553
1021  2 0.0000  67.294200 34.974639  3.137675
1022  2 0.0000  79.156372 38.221553  9.361394
1023  2 0.0000  91.018544 41.468466 15.585114
1024  2 0.0000 102.880716 44.715380 21.808834
1025  2 0.0000 114.742888 47.962294 28.032553
1026  2 0.0000  33.629133  6.895568  3.137675
1027  2 0.0000  45.491305 10.142482  9.361394
1028  2 0.0000  57.353477 13.389396 15.585114
1029  2 0.0000  69.215649 16.636310 21.808834
1030  2 0.0000  81.077821 19.883224 28.032553
1031  2 0.0000  45.491305 13.915336  3.137675
1032  2 0.0000  57.353477 17.162250  9.361394
1033  2 0.0000  69.215650 20.409164 15.585114
1034  2 0.0000  81.077822 23.656077 21.808834
1035  2 0.0000  92.939994 26.902991 28.032553
1036  2 0.0000  57.353478 20.935103  3.137675
1037  2 0.0000  69.215650 24.182017  9.361394
1038  2 0.0000  81.077822 27.428931 15.585114
1039  2 0.0000  92.939994 30.675845 21.808834
1040  2 0.0000 104.802166 33.922759 28.032553
1041  2 0.0000  69.215650 27.954871  3.137675
1042  2 0.0000  81.077823 31.201785  9.361394
1043  2 0.0000  92.939995 34.448699 15.585114
1044  2 0.0000 104.802167 37.695613 21.808834
1045  2 0.0000 116.664339 40.942527 28.032553
1046  2 0.0000  81.077823 34.974639  3.137675
1047  2 0.0000  92.939995 38.221553  9.361394
1048  2 0.0000 104.802167 41.468466 15.585114
1049  2 0.0000 116.664339 44.715380 21.808834
1050  2 0.0000 128.526512 47.962294 28.032553
1051  2 0.0000  47.412756  6.895568  3.137675
1052  2 0.0000  59.274928 10.142482  9.361394
1053  2 0.0000  71.137100 13.389396 15.585114
1054  2 0.0000  82.999273 16.636310 21.808834
1055  2 0.0000  94.861445 19.883224 28.032553
1056  2 0.0000  59.274929 13.915336  3.137675
1057  2 0.0000  71.137101 17.162250  9.361394
1058  2 0.0000  82.999273 20.409164 15.585114
1059  2 0.0000  94.861445 23.656077 21.808834
1060  2 0.0000 106.723617 26.902991 28.032553
1061  2 0.0000  71.137101 20.935103  3.137675
1062  2 0.0000  82.999273 24.182017  9.361394
1063  2 0.0000  94.861446 27.428931 15.585114
1064  2 0.0000 106.723618 30.675845 21.808834
1065  2 0.0000 118.585790 33.922759 28.032553
1066  2 0.0000  82.999274 27.954871  3.137675
1067  2 0.0000  94.861446 31.201785  9.361394
1068  2 0.0000 106.723618 34.448699 15.585114
1069  2 0.0000 118.585790 37.695613 21.808834
1070  2 0.0000 130.447962 40.942527 28.032553
1071  2 0.0000  94.861446 34.974639  3.137675
1072  2 0.0000 106.723619 38.221553  9.361394
1073  2 0.0000 118.585791 41.468466 15.585114
1074  2 0.0000 130.447963 44.715380 21.808834
1075  2 0.0000 142.310135 47.962294 28.032553
1076  2 0.0000  61.196380  6.895568  3.137675
1077  2 0.0000  73.058552 10.142482  9.361394
1078  2 0.0000  84.920724 13.389396 15.585114
1079  2 0.0000  96.782896 16.636310 21.808834
1080  2 0.0000 108.645068 19.883224 28.032553
1081  2 0.0000  73.058552 13.915336  3.137675
1082  2 0.0000  84.920724 17.162250  9.361394
1083  2 0.0000  96.782896 20.409164 15.585114
1084  2 0.0000 108.645069 23.656077 21.808834
1085  2 0.0000 120.507241 26.902991 28.032553
1086  2 0.0000  84.920725 20.935103  3.137675
1087  2 0.0000  96.782897 24.182017  9.361394
1088  2 0.0000 108.645069 27.428931 15.585114
1089  2 0.0000 120.507241 30.675845 21.808834
1090  2 0.0000 132.369413 33.922759 28.032553
1091  2 0.0000  96.782897 27.954871  3.137675
1092  2 0.0000 108.645070 31.201785  9.361394
1093  2 0.0000 120.507242 34.448699 15.585114
1094  2 0.0000 132.369414 37.695613 21.808834
1095  2 0.0000 144.231586 40.942527 28.032553
1096  2 0.0000 108.645070 34.974639  3.137675
1097  2 0.0000 120.507242 38.221553  9.361394
1098  2 0.0000 132.369414 41.468466 15.585114
1099  2 0.0000 144.231586 44.715380 21.808834
1100  2 0.0000 156.093758 47.962294 28.032553
1101  2 0.0000  74.980003  6.895568  3.137675
1102  2 0.0000  86.842175 10.142482  9.361394
1103  2 0.0000  98.704347 13.389396 15.585114
1104  2 0.0000 110.566520 16.636310 21.808834
1105  2 0.0000 122.428692 19.883224 28.032553
1106  2 0.0000  86.842176 13.915336  3.137675
1107  2 0.0000  98.704348 17.162250  9.361394
1108  2 0.0000 110.566520 20.409164 15.585114
1109  2 0.0000 122.428692 23.656077 21.808834
1110  2 0.0000 134.290864 26.902991 28.032553
1111  2 0.0000  98.704348 20.935103  3.137675
1112  2 0.0000 110.566520 24.182017  9.361394
1113  2 0.0000 122.428693 27.428931 15.585114
1114  2 0.0000 134.290865 30.675845 21.808834
1115  2 0.0000 146.153037 33.922759 28.032553
1116  2 0.0000 110.566521 27.954871  3.137675
1117  2 0.0000 122.428693 31.201785  9.361394
1118  2 0.0000 134.290865 34.448699 15.585114
1119  2 0.0000 146.153037 37.695613 21.808834
1120  2 0.0000 158.015209 40.942527 28.032553
1121  2 0.0000 122.428693 34.974639  3.137675
1122  2 0.0000 134.290866 38.221553  9.361394
1123  2 0.0000 146.153038 41.468466 15.585114
1124  2 0.0000 158.015210 44.715380 21.808834
1125  2 0.0000 169.877382 47.962294 28.032553
1126  2 0.0000  24.279659  5.721587  0.863675
1127  2 0.0000  36.141831  8.968501  7.087394
1128  2 0.0000  48.004003 12.215415 13.311114
1129  2 0.0000  59.866175 15.462329 19.534833
1130  2 0.0000  71.728347 18.709242 25.758553
1131  2 0.0000  36.141831 12.741354  0.863675
1132  2 0.0000  48.004003 15.988268  7.087394
1133  2 0.0000  59.866175 19.235182 13.311114
1134  2 0.0000  71.728348 22.482096 19.534833
1135  2 0.0000  83.590520 25.729010 25.758553
1136  2 0.0000  48.004004 19.761122  0.863675
1137  2 0.0000  59.866176 23.008036  7.087394
1138  2 0.0000  71.728348 26.254950 13.311114
1139  2 0.0000  83.590520 29.501864 19.534833
1140  2 0.0000  95.452692 32.748778 25.758553
1141  2 0.0000  59.866176 26.780890  0.863675
1142  2 0.0000  71.728348 30.027804  7.087394
1143  2 0.0000  83.590521 33.274718 13.311114
1144  2 0.0000  95.452693 36.521631 19.534833
1145  2 0.0000 107.314865 39.768545 25.758553
1146  2 0.0000  71.728349 33.800657  0.863675
1147  2 0.0000  83.590521 37.047571  7.087394
1148  2 0.0000  95.452693 40.294485 13.311114
1149  2 0.0000 107.314865 43.541399 19.534833
1150  2 0.0000 119.177037 46.788313 25.758553
1151  2 0.0000  38.063282  5.721587  0.863675
1152  2 0.0000  49.925454  8.968501  7.087394
1153  2 0.0000  61.787626 12.215415 13.311114
1154  2 0.0000  73.649798 15.462329 19.534833
1155  2 0.0000  85.511971 18.709242 25.758553
1156  2 0.0000  49.925455 12.741354  0.863675
1157  2 0.0000  61.787627 15.988268  7.087394
1158  2 0.0000  73.649799 19.235182 13.311114
1159  2 0.0000  85.511971 22.482096 19.534833
1160  2 0.0000  97.374143 25.729010 25.758553
1161  2 0.0000  61.787627 19.761122  0.863675
1162  2 0.0000  73.649799 23.008036  7.087394
1163  2 0.0000  85.511971 26.254950 13.311114
1164  2 0.0000  97.374144 29.501864 19.534833
1165  2 0.0000 109.236316 32.748778 25.758553
1166  2 0.0000  73.649800 26.780890  0.863675
1167  2 0.0000  85.511972 30.027804  7.087394
1168  2 0.0000  97.374144 33.274718 13.311114
1169  2 0.0000 109.236316 36.521631 19.534833
1170  2 0.0000 121.098488 39.768545 25.758553
1171  2 0.0000  85.511972 33.800657  0.863675
1172  2 0.0000  97.374144 37.047571  7.087394
1173  2 0.0000 109.236317 40.294485 13.311114
1174  2 0.0000 121.098489 43.541399 19.534833
1175  2 0.0000 132.960661 46.788313 25.758553
1176  2 0.0000  51.846905  5.721587  0.863675
1177  2 0.0000  63.709078  8.968501  7.087394
1178  2 0.0000  75.571250 12.215415 13.311114
1179  2 0.0000  87.433422 15.462329 19.534833
1180  2 0.0000  99.295594 18.709242 25.758553
1181  2 0.0000  63.709078 12.741354  0.863675
1182  2 0.0000  75.571250 15.988268  7.087394
1183  2 0.0000  87.433422 19.235182 13.311114
1184  2 0.0000  99.295594 22.482096 19.534833
1185  2 0.0000 111.157767 25.729010 25.758553
1186  2 0.0000  75.571251 19.761122  0.863675
1187  2 0.0000  87.433423 23.008036  7.087394
1188  2 0.0000  99.295595 26.254950 13.311114
1189  2 0.0000 111.157767 29.501864 19.534833
1190  2 0.0000 123.019939 32.748778 25.758553
1191  2 0.0000  87.433423 26.780890  0.863675
1192  2 0.0000  99.295595 30.027804  7.087394
1193  2 0.0000 111.157767 33.274718 13.311114
1194  2 0.0000 123.019940 36.521631 19.534833
1195  2 0.0000 134.882112 39.768545 25.758553
1196  2 0.0000  99.295596 33.800657  0.863675
1197  2 0.0000 111.157768 37.047571  7.087394
1198  2 0.0000 123.019940 40.294485 13.311114
1199  2 0.0000 134.882112 43.541399 19.534833
1200  2 0.0000 146.744284 46.788313 25.758553
1201  2 0.0000  65.630529  5.721587  0.863675
1202  2 0.0000  77.492701  8.968501  7.087394
1203  2 0.0000  89.354873 12.215415 13.311114
1204  2 0.0000 101.217045 15.462329 19.534833
1205  2 0.0000 113.079217 18.709242 25.758553
1206  2 0.0000  77.492702 12.741354  0.863675
1207  2 0.0000  89.354874 15.988268  7.087394
1208  2 0.0000 101.217046 19.235182 13.311114
1209  2 0.0000 113.079218 22.482096 19.534833
1210  2 0.0000 124.941390 25.729010 25.758553
1211  2 0.0000  89.354874 19.761122  0.863675
1212  2 0.0000 101.217046 23.008036  7.087394
1213  2 0.0000 113.079218 26.254950 13.311114
1214  2 0.0000 124.941391 29.501864 19.534833
1215  2 0.0000 136.803563 32.748778 25.758553
1216  2 0.0000 101.217047 26.780890  0.863675
1217  2 0.0000 113.079219 30.027804  7.087394
1218  2 0.0000 124.941391 33.274718 13.311114
1219  2 0.0000 136.803563 36.521631 19.534833
1220  2 0.0000 148.665735 39.768545 25.758553
1221  2 0.0000 113.079219 33.800657  0.863675
1222  2 0.0000 124.941391 37.047571  7.087394
1223  2 0.0000 136.803564 40.294485 13.311114
1224  2 0.0000 148.665736 43.541399 19.534833
1225  2 0.0000 160.527908 46.788313 25.758553
1226  2 0.0000  79.414152  5.721587  0.863675
1227  2 0.0000  91.276325  8.968501  7.087394
1228  2 0.0000 103.138497 12.215415 13.311114
1229  2 0.0000 115.000669 15.462329 19.534833
1230  2 0.0000 126.862841 18.709242 25.758553
1231  2 0.0000  91.276325 12.741354  0.863675
1232  2 0.0000 103.138497 15.988268  7.087394
1233  2 0.0000 115.000669 19.235182 13.311114
1234  2 0.0000 126.862841 22.482096 19.534833
1235  2 0.0000 138.725014 25.729010 25.758553
1236  2 0.0000 103.138498 19.761122  0.863675
1237  2 0.0000 115.000670 23.008036  7.087394
1238  2 0.0000 126.862842 26.254950 13.311114
1239  2 0.0000 138.725014 29.501864 19.534833
1240  2 0.0000 150.587186 32.748778 25.758553
1241  2 0.0000 115.000670 26.780890  0.863675
1242  2 0.0000 126.862842 30.027804  7.087394
1243  2 0.0000 138.725014 33.274718 13.311114
1244  2 0.0000 150.587187 36.521631 19.534833
1245  2 0.0000 162.449359 39.768545 25.758553
1246  2 0.0000 126.862843 33.800657  0.863675
1247  2 0.0000 138.725015 37.047571  7.087394
1248  2 0.0000 150.587187 40.294485 13.311114
1249  2 0.0000 162.449359 43.541399 19.534833
1250  2 0.0000 174.311531 46.788313 25.758553
1251  2 0.0000  23.808957  4.207590  6.197905
1252  2 0.0000  35.671130  7.454504 12.421624
1253  2 0.0000  47.533302 10.701417 18.645344
1254  2 0.0000  59.395474 13.948331 24.869064
1255  2 0.0000  71.257646 17.195245 31.092783
1256  2 0.0000  35.671130 11.227357  6.197905
1257  2 0.0000  47.533302 14.474271 12.421624
1258  2 0.0000  59.395474 17.721185 18.645344
1259  2 0.0000  71.257646 20.968099 24.869064
1260  2 0.0000  83.119819 24.215013 31.092783
1261  2 0.0000  47.533303 18.247125  6.197905
1262  2 0.0000  59.395475 21.494039 12.421624
1263  2 0.0000  71.257647 24.740953 18.645344
1264  2 0.0000  83.119819 27.987867 24.869064
1265  2 0.0000  94.981991 31.234781 31.092783
1266  2 0.0000  59.395475 25.266892  6.197905
1267  2 0.0000  71.257647 28.513806 12.421624
1268  2 0.0000  83.119819 31.760720 18.645344
1269  2 0.0000  94.981992 35.007634 24.869064
1270  2 0.0000 106.844164 38.254548 31.092783
1271  2 0.0000  71.257648 32.286660  6.197905
1272  2 0.0000  83.119820 35.533574 12.421624
1273  2 0.0000  94.981992 38.780488 18.645344
1274  2 0.0000 106.844164 42.027402 24.869064
1275  2 0.0000 118.706336 45.274316 31.092783
1276  2 0.0000  37.592581  4.207590  6.197905
1277  2 0.0000  49.454753  7.454504 12.421624
1278  2 0.0000  61.316925 10.701417 18.645344
1279  2 0.0000  73.179097 13.948331 24.869064
1280  2 0.0000  85.041269 17.195245 31.092783
1281  2 0.0000  49.454753 11.227357  6.197905
1282  2 0.0000  61.316926 14.474271 12.421624
1283  2 0.0000  73.179098 17.721185 18.645344
1284  2 0.0000  85.041270 20.968099 24.869064
1285  2 0.0000  96.903442 24.215013 31.092783
1286  2 0.0000  61.316926 18.247125  6.197905
1287  2 0.0000  73.179098 21.494039 12.421624
1288  2 0.0000  85.041270 24.740953 18.645344
1289  2 0.0000  96.903442 27.987867 24.869064
1290  2 0.0000 108.765615 31.234781 31.092783
1291  2 0.0000  73.179099 25.266892  6.197905
1292  2 0.0000  85.041271 28.513806 12.421624
1293  2 0.0000  96.903443 31.760720 18.645344
1294  2 0.0000 108.765615 35.007634 24.869064
1295  2 0.0000 120.627787 38.254548 31.092783
1296  2 0.0000  85.041271 32.286660  6.197905
1297  2 0.0000  96.903443 35.533574 12.421624
1298  2 0.0000 108.765615 38.780488 18.645344
1299  2 0.0000 120.627788 42.027402 24.869064
1300  2 0.0000 132.489960 45.274316 31.092783
1301  2 0.0000  51.376204  4.207590  6.197905
1302  2 0.0000  63.238377  7.454504 12.421624
1303  2 0.0000  75.100549 10.701417 18.645344
1304  2 0.0000  86.962721 13.948331 24.869064
1305  2 0.0000  98.824893 17.195245 31.092783
1306  2 0.0000  63.238377 11.227357  6.197905
1307  2 0.0000  75.100549 14.474271 12.421624
1308  2 0.0000  86.962721 17.721185 18.645344
1309  2 0.0000  98.824893 20.968099 24.869064
1310  2 0.0000 110.687065 24.215013 31.092783
1311  2 0.0000  75.100550 18.247125  6.197905
1312  2 0.0000  86.962722 21.494039 12.421624
1313  2 0.0000  98.824894 24.740953 18.645344
1314  2 0.0000 110.687066 27.987867 24.869064
1315  2 0.0000 122.549238 31.234781 31.092783
1316  2 0.0000  86.962722 25.266892  6.197905
1317  2 0.0000  98.824894 28.513806 12.421624
1318  2 0.0000 110.687066 31.760720 18.645344
1319  2 0.0000 122.549239 35.007634 24.869064
1320  2 0.0000 134.411411 38.254548 31.092783
1321  2 0.0000  98.824895 32.286660  6.197905
1322  2 0.0000 110.687067 35.533574 12.421624
1323  2 0.0000 122.549239 38.780488 18.645344
1324  2 0.0000 134.411411 42.027402 24.869064
1325  2 0.0000 146.273583 45.274316 31.092783
1326  2 0.0000  65.159828  4.207590  6.197905
1327  2 0.0000  77.022000  7.454504 12.421624
1328  2 0.0000  88.884172 10.701417 18.645344
1329  2 0.0000 100.746344 13.948331 24.869064
1330  2 0.0000 112.608516 17.195245 31.092783
1331  2 0.0000  77.022000 11.227357  6.197905
1332  2 0.0000  88.884173 14.474271 12.421624
1333  2 0.0000 100.746345 17.721185 18.645344
1334  2 0.0000 112.608517 20.968099 24.869064
1335  2 0.0000 124.470689 24.215013 31.092783
1336  2 0.0000  88.884173 18.247125  6.197905
1337  2 0.0000 100.746345 21.494039 12.421624
1338  2 0.0000 112.608517 24.740953 18.645344
1339  2 0.0000 124.470689 27.987867 24.869064
1340  2 0.0000 136.332862 31.234781 31.092783
1341  2 0.0000 100.746346 25.266892  6.197905
1342  2 0.0000 112.608518 28.513806 12.421624
1343  2 0.0000 124.470690 31.760720 18.645344
1344  2 0.0000 136.332862 35.007634 24.869064
1345  2 0.0000 148.195034 38.254548 31.092783
1346  2 0.0000 112.608518 32.286660  6.197905
1347  2 0.0000 124.470690 35.533574 12.421624
1348  2 0.0000 136.332862 38.780488 18.645344
1349  2 0.0000 148.195035 42.027402 24.869064
1350  2 0.0000 160.057207 45.274316 31.092783
1351  2 0.0000  78.943451  4.207590  6.197905
1352  2 0.0000  90.805623  7.454504 12.421624
1353  2 0.0000 102.667796 10.701417 18.645344
1354  2 0.0000 114.529968 13.948331 24.869064
1355  2 0.0000 126.392140 17.195245 31.092783
1356  2 0.0000  90.805624 11.227357  6.197905
1357  2 0.0000 102.667796 14.474271 12.421624
1358  2 0.0000 114.529968 17.721185 18.645344
1359  2 0.0000 126.392140 20.968099 24.869064
1360  2 0.0000 138.254312 24.215013 31.092783
1361  2 0.0000 102.667796 18.247125  6.197905
1362  2 0.0000 114.529969 21.494039 12.421624
1363  2 0.0000 126.392141 24.740953 18.645344
1364  2 0.0000 138.254313 27.987867 24.869064
1365  2 0.0000 150.116485 31.234781 31.092783
1366  2 0.0000 114.529969 25.266892  6.197905
1367  2 0.0000 126.392141 28.513806 12.421624
1368  2 0.0000 138.254313 31.760720 18.645344
1369  2 0.0000 150.116485 35.007634 24.869064
1370  2 0.0000 161.978658 38.254548 31.092783
1371  2 0.0000 126.392142 32.286660  6.197905
1372  2 0.0000 138.254314 35.533574 12.421624
1373  2 0.0000 150.116486 38.780488 18.645344
1374  2 0.0000 161.978658 42.027402 24.869064
1375  2 0.0000 173.840830 45.274316 31.092783
1376  2 0.0000  22.632820  9.428696  4.673271
1377  2 0.0000  34.494992 12.675610 10.896990
1378  2 0.0000  46.357164 15.922524 17.120710
1379  2 0.0000  58.219336 19.169438 23.344430
1380  2 0.0000  70.081508 22.416352 29.568149
1381  2 0.0000  34.494992 16.448464  4.673271
1382  2 0.0000  46.357164 19.695377 10.896990
1383  2 0.0000  58.219337 22.942291 17.120710
1384  2 0.0000  70.081509 26.189205 23.344430
1385  2 0.0000  81.943681 29.436119 29.568149
1386  2 0.0000  46.357165 23.468231  4.673271
1387  2 0.0000  58.219337 26.715145 10.896990
1388  2 0.0000  70.081509 29.962059 17.120710
1389  2 0.0000  81.943681 33.208973 23.344430
1390  2 0.0000  93.805853 36.455887 29.568149
1391  2 0.0000  58.219337 30.487999  4.673271
1392  2 0.0000  70.081510 33.734913 10.896990
1393  2 0.0000  81.943682 36.981827 17.120710
1394  2 0.0000  93.805854 40.228741 23.344430
1395  2 0.0000 105.668026 43.475654 29.568149
1396  2 0.0000  70.081510 37.507766  4.673271
1397  2 0.0000  81.943682 40.754680 10.896990
1398  2 0.0000  93.805854 44.001594 17.120710
1399  2 0.0000 105.668026 47.248508 23.344430
1400  2 0.0000 117.530199 50.495422 29.568149
1401  2 0.0000  36.416443  9.428696  4.673271
1402  2 0.0000  48.278615 12.675610 10.896990
1403  2 0.0000  60.140787 15.922524 17.120710
1404  2 0.0000  72.002960 19.169438 23.344430
1405  2 0.0000  83.865132 22.416352 29.568149
1406  2 0.0000  48.278616 16.448464  4.673271
1407  2 0.0000  60.140788 19.695377 10.896990
1408  2 0.0000  72.002960 22.942291 17.120710
1409  2 0.0000  83.865132 26.189205 23.344430
1410  2 0.0000  95.727304 29.436119 29.568149
1411  2 0.0000  60.140788 23.468231  4.673271
1412  2 0.0000  72.002960 26.715145 10.896990
1413  2 0.0000  83.865133 29.962059 17.120710
1414  2 0.0000  95.727305 33.208973 23.344430
1415  2 0.0000 107.589477 36.455887 29.568149
1416  2 0.0000  72.002961 30.487999  4.673271
1417  2 0.0000  83.865133 33.734913 10.896990
1418  2 0.0000  95.727305 36.981827 17.120710
1419  2 0.0000 107.589477 40.228741 23.344430
1420  2 0.0000 119.451649 43.475654 29.568149
1421  2 0.0000  83.865133 37.507766  4.673271
1422  2 0.0000  95.727306 40.754680 10.896990
1423  2 0.0000 107.589478 44.001594 17.120710
1424  2 0.0000 119.451650 47.248508 23.344430
1425  2 0.0000 131.313822 50.495422 29.568149
1426  2 0.0000  50.200067  9.428696  4.673271
1427  2 0.0000  62.062239 12.675610 10.896990
1428  2 0.0000  73.924411 15.922524 17.120710
1429  2 0.0000  85.786583 19.169438 23.344430
1430  2 0.0000  97.648755 22.416352 29.568149
1431  2 0.0000  62.062239 16.448464  4.673271
1432  2 0.0000  73.924411 19.695377 10.896990
1433  2 0.0000  85.786583 22.942291 17.120710
1434  2 0.0000  97.648756 26.189205 23.344430
1435  2 0.0000 109.510928 29.436119 29.568149
1436  2 0.0000  73.924412 23.468231  4.673271
1437  2 0.0000  85.786584 26.715145 10.896990
1438  2 0.0000  97.648756 29.962059 17.120710
1439  2 0.0000 109.510928 33.208973 23.344430
1440  2 0.0000 121.373100 36.455887 29.568149
1441  2 0.0000  85.786584 30.487999  4.673271
1442  2 0.0000  97.648757 33.734913 10.896990
1443  2 0.0000 109.510929 36.981827 17.120710
1444  2 0.0000 121.373101 40.228741 23.344430
1445  2 0.0000 133.235273 43.475654 29.568149
1446  2 0.0000  97.648757 37.507766  4.673271
1447  2 0.0000 109.510929 40.754680 10.896990
1448  2 0.0000 121.373101 44.001594 17.120710
1449  2 0.0000 133.235273 47.248508 23.344430
1450  2 0.0000 145.097446 50.495422 29.568149
1451  2 0.0000  63.983690  9.428696  4.673271
1452  2 0.0000  75.845862 12.675610 10.896990
1453  2 0.0000  87.708034 15.922524 17.120710
1454  2 0.0000  99.570207 19.169438 23.344430
1455  2 0.0000 111.432379 22.416352 29.568149
1456  2 0.0000  75.845863 16.448464  4.673271
1457  2 0.0000  87.708035 19.695377 10.896990
1458  2 0.0000  99.570207 22.942291 17.120710
1459  2 0.0000 111.432379 26.189205 23.344430
1460  2 0.0000 123.294551 29.436119 29.568149
1461  2 0.0000  87.708035 23.468231  4.673271
1462  2 0.0000  99.570207 26.715145 10.896990
1463  2 0.0000 111.432380 29.962059 17.120710
1464  2 0.0000 123.294552 33.208973 23.344430
1465  2 0.0000 135.156724 36.455887 29.568149
1466  2 0.0000  99.570208 30.487999  4.673271
1467  2 0.0000 111.432380 33.734913 10.896990
1468  2 0.0000 123.294552 36.981827 17.120710
1469  2 0.0000 135.156724 40.228741 23.344430
1470  2 0.0000 147.018896 43.475654 29.568149
1471  2 0.0000 111.432380 37.507766  4.673271
1472  2 0.0000 123.294553 40.754680 10.896990
1473  2 0.0000 135.156725 44.001594 17.120710
1474  2 0.0000 147.018897 47.248508 23.344430
1475  2 0.0000 158.881069 50.495422 29.568149
1476  2 0.0000  77.767314  9.428696  4.673271
1477  2 0.0000  89.629486 12.675610 10.896990
1478  2 0.0000 101.491658 15.922524 17.120710
1479  2 0.0000 113.353830 19.169438 23.344430
1480  2 0.0000 125.216002 22.416352 29.568149
1481  2 0.0000  89.629486 16.448464  4.673271
1482  2 0.0000 101.491658 19.695377 10.896990
1483  2 0.0000 113.353830 22.942291 17.120710
1484  2 0.0000 125.216003 26.189205 23.344430
1485  2 0.0000 137.078175 29.436119 29.568149
1486  2 0.0000 101.491659 23.468231  4.673271
1487  2 0.0000 113.353831 26.715145 10.896990
1488  2 0.0000 125.216003 29.962059 17.120710
1489  2 0.0000 137.078175 33.208973 23.344430
1490  2 0.0000 148.940347 36.455887 29.568149
1491  2 0.0000 113.353831 30.487999  4.673271
1492  2 0.0000 125.216003 33.734913 10.896990
1493  2 0.0000 137.078176 36.981827 17.120710
1494  2 0.0000 148.940348 40.228741 23.344430
1495  2 0.0000 160.802520 43.475654 29.568149
1496  2 0.0000 125.216004 37.507766  4.673271
1497  2 0.0000 137.078176 40.754680 10.896990
1498  2 0.0000 148.940348 44.001594 17.120710
1499  2 0.0000 160.802520 47.248508 23.344430
1500  2 0.0000 172.664692 50.495422 29.568149
1501  2 0.0000  16.917146  5.554803  3.975534
1502  2 0.0000  28.779318  8.801717 10.199254
1503  2 0.0000  40.641490 12.048631 16.422974
1504  2 0.0000  52.503662 15.295545 22.646693
1505  2 0.0000  64.365834 18.542459 28.870413
1506  2 0.0000  28.779318 12.574571  3.975534
1507  2 0.0000  40.641491 15.821485 10.199254
1508  2 0.0000  52.503663 19.068398 16.422974
1509  2 0.0000  64.365835 22.315312 22.646693
1510  2 0.0000  76.228007 25.562226 28.870413
1511  2 0.0000  40.641491 19.594338  3.975534
1512  2 0.0000  52.503663 22.841252 10.199254
1513  2 0.0000  64.365835 26.088166 16.422974
1514  2 0.0000  76.228007 29.335080 22.646693
1515  2 0.0000  88.090180 32.581994 28.870413
1516  2 0.0000  52.503664 26.614106  3.975534
1517  2 0.0000  64.365836 29.861020 10.199254
1518  2 0.0000  76.228008 33.107934 16.422974
1519  2 0.0000  88.090180 36.354848 22.646693
1520  2 0.0000  99.952352 39.601762 28.870413
1521  2 0.0000  64.365836 33.633874  3.975534
1522  2 0.0000  76.228008 36.880787 10.199254
1523  2 0.0000  88.090180 40.127701 16.422974
1524  2 0.0000  99.952353 43.374615 22.646693
1525  2 0.0000 111.814525 46.621529 28.870413
1526  2 0.0000  30.700769  5.554803  3.975534
1527  2 0.0000  42.562941  8.801717 10.199254
1528  2 0.0000  54.425114 12.048631 16.422974
1529  2 0.0000  66.287286 15.295545 22.646693
1530  2 0.0000  78.149458 18.542459 28.870413
1531  2 0.0000  42.562942 12.574571  3.975534
1532  2 0.0000  54.425114 15.821485 10.199254
1533  2 0.0000  66.287286 19.068398 16.422974
1534  2 0.0000  78.149458 22.315312 22.646693
1535  2 0.0000  90.011630 25.562226 28.870413
1536  2 0.0000  54.425114 19.594338  3.975534
1537  2 0.0000  66.287287 22.841252 10.199254
1538  2 0.0000  78.149459 26.088166 16.422974
1539  2 0.0000  90.011631 29.335080 22.646693
1540  2 0.0000 101.873803 32.581994 28.870413
1541  2 0.0000  66.287287 26.614106  3.975534
1542  2 0.0000  78.149459 29.861020 10.199254
1543  2 0.0000  90.011631 33.107934 16.422974
1544  2 0.0000 101.873803 36.354848 22.646693
1545  2 0.0000 113.735976 39.601762 28.870413
1546  2 0.0000  78.149460 33.633874  3.975534
1547  2 0.0000  90.011632 36.880787 10.199254
1548  2 0.0000 101.873804 40.127701 16.422974
1549  2 0.0000 113.735976 43.374615 22.646693
1550  2 0.0000 125.598148 46.621529 28.870413
1551  2 0.0000  44.484393  5.554803  3.975534
1552  2 0.0000  56.346565  8.801717 10.199254
1553  2 0.0000  68.208737 12.048631 16.422974
1554  2 0.0000  80.070909 15.295545 22.646693
1555  2 0.0000  91.933081 18.542459 28.870413
1556  2 0.0000  56.346565 12.574571  3.975534
1557  2 0.0000  68.208738 15.821485 10.199254
1558  2 0.0000  80.070910 19.068398 16.422974
1559  2 0.0000  91.933082 22.315312 22.646693
1560  2 0.0000 103.795254 25.562226 28.870413
1561  2 0.0000  68.208738 19.594338  3.975534
1562  2 0.0000  80.070910 22.841252 10.199254
1563  2 0.0000  91.933082 26.088166 16.422974
1564  2 0.0000 103.795254 29.335080 22.646693
1565  2 0.0000 115.657426 32.581994 28.870413
1566  2 0.0000  80.070911 26.614106  3.975534
1567  2 0.0000  91.933083 29.861020 10.199254
1568  2 0.0000 103.795255 33.107934 16.422974
1569  2 0.0000 115.657427 36.354848 22.646693
1570  2 0.0000 127.519599 39.601762 28.870413
1571  2 0.0000  91.933083 33.633874  3.975534
1572  2 0.0000 103.795255 36.880787 10.199254
1573  2 0.0000 115.657427 40.127701 16.422974
1574  2 0.0000 127.519600 43.374615 22.646693
1575  2 0.0000 139.381772 46.621529 28.870413
1576  2 0.0000  58.268016  5.554803  3.975534
1577  2 0.0000  70.130188  8.801717 10.199254
1578  2 0.0000  81.992361 12.048631 16.422974
1579  2 0.0000  93.854533 15.295545 22.646693
1580  2 0.0000 105.716705 18.542459 28.870413
1581  2 0.0000  70.130189 12.574571  3.975534
1582  2 0.0000  81.992361 15.821485 10.199254
1583  2 0.0000  93.854533 19.068398 16.422974
1584  2 0.0000 105.716705 22.315312 22.646693
1585  2 0.0000 117.578877 25.562226 28.870413
1586  2 0.0000  81.992361 19.594338  3.975534
1587  2 0.0000  93.854534 22.841252 10.199254
1588  2 0.0000 105.716706 26.088166 16.422974
1589  2 0.0000 117.578878 29.335080 22.646693
1590  2 0.0000 129.441050 32.581994 28.870413
1591  2 0.0000  93.854534 26.614106  3.975534
1592  2 0.0000 105.716706 29.861020 10.199254
1593  2 0.0000 117.578878 33.107934 16.422974
1594  2 0.0000 129.441050 36.354848 22.646693
1595  2 0.0000 141.303223 39.601762 28.870413
1596  2 0.0000 105.716707 33.633874  3.975534
1597  2 0.0000 117.578879 36.880787 10.199254
1598  2 0.0000 129.441051 40.127701 16.422974
1599  2 0.0000 141.303223 43.374615 22.646693
1600  2 0.0000 153.165395 46.621529 28.870413
1601  2 0.0000  72.051640  5.554803  3.975534
1602  2 0.0000  83.913812  8.801717 10.199254
1603  2 0.0000  95.775984 12.048631 16.422974
1604  2 0.0000 107.638156 15.295545 22.646693
1605  2 0.0000 119.500328 18.542459 28.870413
1606  2 0.0000  83.913812 12.574571  3.975534
1607  2 0.0000  95.775984 15.821485 10.199254
1608  2 0.0000 107.638157 19.068398 16.422974
1609  2 0.0000 119.500329 22.315312 22.646693
1610  2 0.0000 131.362501 25.562226 28.870413
1611  2 0.0000  95.775985 19.594338  3.975534
1612  2 0.0000 107.638157 22.841252 10.199254
1613  2 0.0000 119.500329 26.088166 16.422974
1614  2 0.0000 131.362501 29.335080 22.646693
1615  2 0.0000 143.224673 32.581994 28.870413
1616  2 0.0000 107.638157 26.614106  3.975534
1617  2 0.0000 119.500330 29.861020 10.199254
1618  2 0.0000 131.362502 33.107934 16.422974
1619  2 0.0000 143.224674 36.354848 22.646693
1620  2 0.0000 155.086846 39.601762 28.870413
1621  2 0.0000 119.500330 33.633874  3.975534
1622  2 0.0000 131.362502 36.880787 10.199254
1623  2 0.0000 143.224674 40.127701 16.422974
1624  2 0.0000 155.086846 43.374615 22.646693
1625  2 0.0000 166.949019 46.621529 28.870413
1626  2 0.0000  17.387847  5.298615  1.561411
1627  2 0.0000  29.250019  8.545529  7.785131
1628  2 0.0000  41.112191 11.792443 14.008850
1629  2 0.0000  52.974363 15.039357 20.232570
1630  2 0.0000  64.836535 18.286271 26.456290
1631  2 0.0000  29.250019 12.318383  1.561411
1632  2 0.0000  41.112191 15.565297  7.785131
1633  2 0.0000  52.974364 18.812211 14.008850
1634  2 0.0000  64.836536 22.059124 20.232570
1635  2 0.0000  76.698708 25.306038 26.456290
1636  2 0.0000  41.112192 19.338150  1.561411
1637  2 0.0000  52.974364 22.585064  7.785131
1638  2 0.0000  64.836536 25.831978 14.008850
1639  2 0.0000  76.698708 29.078892 20.232570
1640  2 0.0000  88.560880 32.325806 26.456290
1641  2 0.0000  52.974365 26.357918  1.561411
1642  2 0.0000  64.836537 29.604832  7.785131
1643  2 0.0000  76.698709 32.851746 14.008850
1644  2 0.0000  88.560881 36.098660 20.232570
1645  2 0.0000 100.423053 39.345574 26.456290
1646  2 0.0000  64.836537 33.377686  1.561411
1647  2 0.0000  76.698709 36.624599  7.785131
1648  2 0.0000  88.560881 39.871513 14.008850
1649  2 0.0000 100.423053 43.118427 20.232570
1650  2 0.0000 112.285226 46.365341 26.456290
1651  2 0.0000  31.171470  5.298615  1.561411
1652  2 0.0000  43.033642  8.545529  7.785131
1653  2 0.0000  54.895814 11.792443 14.008850
1654  2 0.0000  66.757987 15.039357 20.232570
1655  2 0.0000  78.620159 18.286271 26.456290
1656  2 0.0000  43.033643 12.318383  1.561411
1657  2 0.0000  54.895815 15.565297  7.785131
1658  2 0.0000  66.757987 18.812211 14.008850
1659  2 0.0000  78.620159 22.059124 20.232570
1660  2 0.0000  90.482331 25.306038 26.456290
1661  2 0.0000  54.895815 19.338150  1.561411
1662  2 0.0000  66.757988 22.585064  7.785131
1663  2 0.0000  78.620160 25.831978 14.008850
1664  2 0.0000  90.482332 29.078892 20.232570
1665  2 0.0000 102.344504 32.325806 26.456290
1666  2 0.0000  66.757988 26.357918  1.561411
1667  2 0.0000  78.620160 29.604832  7.785131
1668  2 0.0000  90.482332 32.851746 14.008850
1669  2 0.0000 102.344504 36.098660 20.232570
1670  2 0.0000 114.206677 39.345574 26.456290
1671  2 0.0000  78.620161 33.377686  1.561411
1672  2 0.0000  90.482333 36.624599  7.785131
1673  2 0.0000 102.344505 39.871513 14.008850
1674  2 0.0000 114.206677 43.118427 20.232570
1675  2 0.0000 126.068849 46.365341 26.456290
1676  2 0.0000  44.955094  5.298615  1.561411
1677  2 0.0000  56.817266  8.545529  7.785131
1678  2 0.0000  68.679438 11.792443 14.008850
1679  2 0.0000  80.541610 15.039357 20.232570
1680  2 0.0000  92.403782 18.286271 26.456290
1681  2 0.0000  56.817266 12.318383  1.561411
1682  2 0.0000  68.679438 15.565297  7.785131
1683  2 0.0000  80.541611 18.812211 14.008850
1684  2 0.0000  92.403783 22.059124 20.232570
1685  2 0.0000 104.265955 25.306038 26.456290
1686  2 0.0000  68.679439 19.338150  1.561411
1687  2 0.0000  80.541611 22.585064  7.785131
1688  2 0.0000  92.403783 25.831978 14.008850
1689  2 0.0000 104.265955 29.078892 20.232570
1690  2 0.0000 116.128127 32.325806 26.456290
1691  2 0.0000  80.541611 26.357918  1.561411
1692  2 0.0000  92.403784 29.604832  7.785131
1693  2 0.0000 104.265956 32.851746 14.008850
1694  2 0.0000 116.128128 36.098660 20.232570
1695  2 0.0000 127.990300 39.345574 26.456290
1696  2 0.0000  92.403784 33.377686  1.561411
1697  2 0.0000 104.265956 36.624599  7.785131
1698  2 0.0000 116.128128 39.871513 14.008850
1699  2 0.0000 127.990300 43.118427 20.232570
1700  2 0.0000 139.852473 46.365341 26.456290
1701  2 0.0000  58.738717  5.298615  1.561411
1702  2 0.0000  70.600889  8.545529  7.785131
1703  2 0.0000  82.463061 11.792443 14.008850
1704  2 0.0000  94.325234 15.039357 20.232570
1705  2 0.0000 106.187406 18.286271 26.456290
1706  2 0.0000  70.600890 12.318383  1.561411
1707  2 0.0000  82.463062 15.565297  7.785131
1708  2 0.0000  94.325234 18.812211 14.008850
1709  2 0.0000 106.187406 22.059124 20.232570
1710  2 0.0000 118.049578 25.306038 26.456290
1711  2 0.0000  82.463062 19.338150  1.561411
1712  2 0.0000  94.325234 22.585064  7.785131
1713  2 0.0000 106.187407 25.831978 14.008850
1714  2 0.0000 118.049579 29.078892 20.232570
1715  2 0.0000 129.911751 32.325806 26.456290
1716  2 0.0000  94.325235 26.357918  1.561411
1717  2 0.0000 106.187407 29.604832  7.785131
1718  2 0.0000 118.049579 32.851746 14.008850
1719  2 0.0000 129.911751 36.098660 20.232570
1720  2 0.0000 141.773923 39.345574 26.456290
1721  2 0.0000 106.187407 33.377686  1.561411
1722  2 0.0000 118.049580 36.624599  7.785131
1723  2 0.0000 129.911752 39.871513 14.008850
1724  2 0.0000 141.773924 43.118427 20.232570
1725  2 0.0000 153.636096 46.365341 26.456290
1726  2 0.0000  72.522341  5.298615  1.561411
1727  2 0.0000  84.384513  8.545529  7.785131
1728  2 0.0000  96.246685 11.792443 14.008850
1729  2 0.0000 108.108857 15.039357 20.232570
1730  2 0.0000 119.971029 18.286271 26.456290
1731  2 0.0000  84.384513 12.318383  1.561411
1732  2 0.0000  96.246685 15.565297  7.785131
1733  2 0.0000 108.108857 18.812211 14.008850
1734  2 0.0000 119.971030 22.059124 20.232570
1735  2 0.0000 131.833202 25.306038 26.456290
1736  2 0.0000  96.246686 19.338150  1.561411
1737  2 0.0000 108.108858 22.585064  7.785131
1738  2 0.0000 119.971030 25.831978 14.008850
1739  2 0.0000 131.833202 29.078892 20.232570
1740  2 0.0000 143.695374 32.325806 26.456290
1741  2 0.0000 108.108858 26.357918  1.561411
1742  2 0.0000 119.971031 29.604832  7.785131
1743  2 0.0000 131.833203 32.851746 14.008850
1744  2 0.0000 143.695375 36.098660 20.232570
1745  2 0.0000 155.557547 39.345574 26.456290
1746  2 0.0000 119.971031 33.377686  1.561411
1747  2 0.0000 131.833203 36.624599  7.785131
1748  2 0.0000 143.695375 39.871513 14.008850
1749  2 0.0000 155.557547 43.118427 20.232570
1750  2 0.0000 167.419720 46.365341 26.456290
1751  2 0.0000  17.662459  3.371113  3.086045
1752  2 0.0000  29.524631  6.618027  9.309765
1753  2 0.0000  41.386803  9.864941 15.533484
1754  2 0.0000  53.248975 13.111855 21.757204
1755  2 0.0000  65.111148 16.358769 27.980924
1756  2 0.0000  29.524632 10.390881  3.086045
1757  2 0.0000  41.386804 13.637795  9.309765
1758  2 0.0000  53.248976 16.884709 15.533484
1759  2 0.0000  65.111148 20.131623 21.757204
1760  2 0.0000  76.973320 23.378537 27.980924
1761  2 0.0000  41.386804 17.410649  3.086045
1762  2 0.0000  53.248976 20.657563  9.309765
1763  2 0.0000  65.111148 23.904477 15.533484
1764  2 0.0000  76.973321 27.151390 21.757204
1765  2 0.0000  88.835493 30.398304 27.980924
1766  2 0.0000  53.248977 24.430416  3.086045
1767  2 0.0000  65.111149 27.677330  9.309765
1768  2 0.0000  76.973321 30.924244 15.533484
1769  2 0.0000  88.835493 34.171158 21.757204
1770  2 0.0000 100.697665 37.418072 27.980924
1771  2 0.0000  65.111149 31.450184  3.086045
1772  2 0.0000  76.973321 34.697098  9.309765
1773  2 0.0000  88.835494 37.944012 15.533484
1774  2 0.0000 100.697666 41.190926 21.757204
1775  2 0.0000 112.559838 44.437840 27.980924
1776  2 0.0000  31.446082  3.371113  3.086045
1777  2 0.0000  43.308255  6.618027  9.309765
1778  2 0.0000  55.170427  9.864941 15.533484
1779  2 0.0000  67.032599 13.111855 21.757204
1780  2 0.0000  78.894771 16.358769 27.980924
1781  2 0.0000  43.308255 10.390881  3.086045
1782  2 0.0000  55.170427 13.637795  9.309765
1783  2 0.0000  67.032599 16.884709 15.533484
1784  2 0.0000  78.894771 20.131623 21.757204
1785  2 0.0000  90.756944 23.378537 27.980924
1786  2 0.0000  55.170428 17.410649  3.086045
1787  2 0.0000  67.032600 20.657563  9.309765
1788  2 0.0000  78.894772 23.904477 15.533484
1789  2 0.0000  90.756944 27.151390 21.757204
1790  2 0.0000 102.619116 30.398304 27.980924
1791  2 0.0000  67.032600 24.430416  3.086045
1792  2 0.0000  78.894772 27.677330  9.309765
1793  2 0.0000  90.756944 30.924244 15.533484
1794  2 0.0000 102.619117 34.171158 21.757204
1795  2 0.0000 114.481289 37.418072 27.980924
1796  2 0.0000  78.894773 31.450184  3.086045
1797  2 0.0000  90.756945 34.697098  9.309765
1798  2 0.0000 102.619117 37.944012 15.533484
1799  2 0.0000 114.481289 41.190926 21.757204
1800  2 0.0000 126.343461 44.437840 27.980924
1801  2 0.0000  45.229706  3.371113  3.086045
1802  2 0.0000  57.091878  6.618027  9.309765
1803  2 0.0000  68.954050  9.864941 15.533484
1804  2 0.0000  80.816222 13.111855 21.757204
1805  2 0.0000  92.678394 16.358769 27.980924
1806  2 0.0000  57.091878 10.390881  3.086045
1807  2 0.0000  68.954051 13.637795  9.309765
1808  2 0.0000  80.816223 16.884709 15.533484
1809  2 0.0000  92.678395 20.131623 21.757204
1810  2 0.0000 104.540567 23.378537 27.980924
1811  2 0.0000  68.954051 17.410649  3.086045
1812  2 0.0000  80.816223 20.657563  9.309765
1813  2 0.0000  92.678395 23.904477 15.533484
1814  2 0.0000 104.540567 27.151390 21.757204
1815  2 0.0000 116.402740 30.398304 27.980924
1816  2 0.0000  80.816224 24.430416  3.086045
1817  2 0.0000  92.678396 27.677330  9.309765
1818  2 0.0000 104.540568 30.924244 15.533484
1819  2 0.0000 116.402740 34.171158 21.757204
1820  2 0.0000 128.264912 37.418072 27.980924
1821  2 0.0000  92.678396 31.450184  3.086045
1822  2 0.0000 104.540568 34.697098  9.309765
1823  2 0.0000 116.402741 37.944012 15.533484
1824  2 0.0000 128.264913 41.190926 21.757204
1825  2 0.0000 140.127085 44.437840 27.980924
1826  2 0.0000  59.013329  3.371113  3.086045
1827  2 0.0000  70.875502  6.618027  9.309765
1828  2 0.0000  82.737674  9.864941 15.533484
1829  2 0.0000  94.599846 13.111855 21.757204
1830  2 0.0000 106.462018 16.358769 27.980924
1831  2 0.0000  70.875502 10.390881  3.086045
1832  2 0.0000  82.737674 13.637795  9.309765
1833  2 0.0000  94.599846 16.884709 15.533484
1834  2 0.0000 106.462018 20.131623 21.757204
1835  2 0.0000 118.324190 23.378537 27.980924
1836  2 0.0000  82.737675 17.410649  3.086045
1837  2 0.0000  94.599847 20.657563  9.309765
1838  2 0.0000 106.462019 23.904477 15.533484
1839  2 0.0000 118.324191 27.151390 21.757204
1840  2 0.0000 130.186363 30.398304 27.980924
1841  2 0.0000  94.599847 24.430416  3.086045
1842  2 0.0000 106.462019 27.677330  9.309765
1843  2 0.0000 118.324191 30.924244 15.533484
1844  2 0.0000 130.186364 34.171158 21.757204
1845  2 0.0000 142.048536 37.418072 27.980924
1846  2 0.0000 106.462020 31.450184  3.086045
1847  2 0.0000 118.324192 34.697098  9.309765
1848  2 0.0000 130.186364 37.944012 15.533484
1849  2 0.0000 142.048536 41.190926 21.757204
1850  2 0.0000 153.910708 44.437840 27.980924
1851  2 0.0000  72.796953  3.371113  3.086045
1852  2 0.0000  84.659125  6.618027  9.309765
1853  2 0.0000  96.521297  9.864941 15.533484
1854  2 0.0000 108.383469 13.111855 21.757204
1855  2 0.0000 120.245641 16.358769 27.980924
1856  2 0.0000  84.659125 10.390881  3.086045
1857  2 0.0000  96.521298 13.637795  9.309765
1858  2 0.0000 108.383470 16.884709 15.533484
1859  2 0.0000 120.245642 20.131623 21.757204
1860  2 0.0000 132.107814 23.378537 27.980924
1861  2 0.0000  96.521298 17.410649  3.086045
1862  2 0.0000 108.383470 20.657563  9.309765
1863  2 0.0000 120.245642 23.904477 15.533484
1864  2 0.0000 132.107814 27.151390 21.757204
1865  2 0.0000 143.969987 30.398304 27.980924
1866  2 0.0000 108.383471 24.430416  3.086045
1867  2 0.0000 120.245643 27.677330  9.309765
1868  2 0.0000 132.107815 30.924244 15.533484
1869  2 0.0000 143.969987 34.171158 21.757204
1870  2 0.0000 155.832159 37.418072 27.980924
1871  2 0.0000 120.245643 31.450184  3.086045
1872  2 0.0000 132.107815 34.697098  9.309765
1873  2 0.0000 143.969987 37.944012 15.533484
1874  2 0.0000 155.832160 41.190926 21.757204
1875  2 0.0000 167.694332 44.437840 27.980924
1876  2 0.0000  13.228310  4.545095  5.360045
1877  2 0.0000  25.090482  7.792009 11.583765
1878  2 0.0000  36.952654 11.038923 17.807484
1879  2 0.0000  48.814826 14.285836 24.031204
1880  2 0.0000  60.676998 17.532750 30.254924
1881  2 0.0000  25.090482 11.564862  5.360045
1882  2 0.0000  36.952654 14.811776 11.583765
1883  2 0.0000  48.814826 18.058690 17.807484
1884  2 0.0000  60.676999 21.305604 24.031204
1885  2 0.0000  72.539171 24.552518 30.254924
1886  2 0.0000  36.952655 18.584630  5.360045
1887  2 0.0000  48.814827 21.831544 11.583765
1888  2 0.0000  60.676999 25.078458 17.807484
1889  2 0.0000  72.539171 28.325372 24.031204
1890  2 0.0000  84.401343 31.572286 30.254924
1891  2 0.0000  48.814827 25.604398  5.360045
1892  2 0.0000  60.677000 28.851312 11.583765
1893  2 0.0000  72.539172 32.098225 17.807484
1894  2 0.0000  84.401344 35.345139 24.031204
1895  2 0.0000  96.263516 38.592053 30.254924
1896  2 0.0000  60.677000 32.624165  5.360045
1897  2 0.0000  72.539172 35.871079 11.583765
1898  2 0.0000  84.401344 39.117993 17.807484
1899  2 0.0000  96.263516 42.364907 24.031204
1900  2 0.0000 108.125689 45.611821 30.254924
1901  2 0.0000  27.011933  4.545095  5.360045
1902  2 0.0000  38.874105  7.792009 11.583765
1903  2 0.0000  50.736277 11.038923 17.807484
1904  2 0.0000  62.598450 14.285836 24.031204
1905  2 0.0000  74.460622 17.532750 30.254924
1906  2 0.0000  38.874106 11.564862  5.360045
1907  2 0.0000  50.736278 14.811776 11.583765
1908  2 0.0000  62.598450 18.058690 17.807484
1909  2 0.0000  74.460622 21.305604 24.031204
1910  2 0.0000  86.322794 24.552518 30.254924
1911  2 0.0000  50.736278 18.584630  5.360045
1912  2 0.0000  62.598450 21.831544 11.583765
1913  2 0.0000  74.460623 25.078458 17.807484
1914  2 0.0000  86.322795 28.325372 24.031204
1915  2 0.0000  98.184967 31.572286 30.254924
1916  2 0.0000  62.598451 25.604398  5.360045
1917  2 0.0000  74.460623 28.851312 11.583765
1918  2 0.0000  86.322795 32.098225 17.807484
1919  2 0.0000  98.184967 35.345139 24.031204
1920  2 0.0000 110.047139 38.592053 30.254924
1921  2 0.0000  74.460623 32.624165  5.360045
1922  2 0.0000  86.322796 35.871079 11.583765
1923  2 0.0000  98.184968 39.117993 17.807484
1924  2 0.0000 110.047140 42.364907 24.031204
1925  2 0.0000 121.909312 45.611821 30.254924
1926  2 0.0000  40.795557  4.545095  5.360045
1927  2 0.0000  52.657729  7.792009 11.583765
1928  2 0.0000  64.519901 11.038923 17.807484
1929  2 0.0000  76.382073 14.285836 24.031204
1930  2 0.0000  88.244245 17.532750 30.254924
1931  2 0.0000  52.657729 11.564862  5.360045
1932  2 0.0000  64.519901 14.811776 11.583765
1933  2 0.0000  76.382073 18.058690 17.807484
1934  2 0.0000  88.244246 21.305604 24.031204
1935  2 0.0000 100.106418 24.552518 30.254924
1936  2 0.0000  64.519902 18.584630  5.360045
1937  2 0.0000  76.382074 21.831544 11.583765
1938  2 0.0000  88.244246 25.078458 17.807484
1939  2 0.0000 100.106418 28.325372 24.031204
1940  2 0.0000 111.968590 31.572286 30.254924
1941  2 0.0000  76.382074 25.604398  5.360045
1942  2 0.0000  88.244246 28.851312 11.583765
1943  2 0.0000 100.106419 32.098225 17.807484
1944  2 0.0000 111.968591 35.345139 24.031204
1945  2 0.0000 123.830763 38.592053 30.254924
1946  2 0.0000  88.244247 32.624165  5.360045
1947  2 0.0000 100.106419 35.871079 11.583765
1948  2 0.0000 111.968591 39.117993 17.807484
1949  2 0.0000 123.830763 42.364907 24.031204
1950  2 0.0000 135.692935 45.611821 30.254924
1951  2 0.0000  54.579180  4.545095  5.360045
1952  2 0.0000  66.441352  7.792009 11.583765
1953  2 0.0000  78.303524 11.038923 17.807484
1954  2 0.0000  90.165696 14.285836 24.031204
1955  2 0.0000 102.027869 17.532750 30.254924
1956  2 0.0000  66.441353 11.564862  5.360045
1957  2 0.0000  78.303525 14.811776 11.583765
1958  2 0.0000  90.165697 18.058690 17.807484
1959  2 0.0000 102.027869 21.305604 24.031204
1960  2 0.0000 113.890041 24.552518 30.254924
1961  2 0.0000  78.303525 18.584630  5.360045
1962  2 0.0000  90.165697 21.831544 11.583765
1963  2 0.0000 102.027869 25.078458 17.807484
1964  2 0.0000 113.890042 28.325372 24.031204
1965  2 0.0000 125.752214 31.572286 30.254924
1966  2 0.0000  90.165698 25.604398  5.360045
1967  2 0.0000 102.027870 28.851312 11.583765
1968  2 0.0000 113.890042 32.098225 17.807484
1969  2 0.0000 125.752214 35.345139 24.031204
1970  2 0.0000 137.614386 38.592053 30.254924
1971  2 0.0000 102.027870 32.624165  5.360045
1972  2 0.0000 113.890043 35.871079 11.583765
1973  2 0.0000 125.752215 39.117993 17.807484
1974  2 0.0000 137.614387 42.364907 24.031204
1975  2 0.0000 149.476559 45.611821 30.254924
1976  2 0.0000  68.362804  4.545095  5.360045
1977  2 0.0000  80.224976  7.792009 11.583765
1978  2 0.0000  92.087148 11.038923 17.807484
1979  2 0.0000 103.949320 14.285836 24.031204
1980  2 0.0000 115.811492 17.532750 30.254924
1981  2 0.0000  80.224976 11.564862  5.360045
1982  2 0.0000  92.087148 14.811776 11.583765
1983  2 0.0000 103.949320 18.058690 17.807484
1984  2 0.0000 115.811493 21.305604 24.031204
1985  2 0.0000 127.673665 24.552518 30.254924
1986  2 0.0000  92.087149 18.584630  5.360045
1987  2 0.0000 103.949321 21.831544 11.583765
1988  2 0.0000 115.811493 25.078458 17.807484
1989  2 0.0000 127.673665 28.325372 24.031204
1990  2 0.0000 139.535837 31.572286 30.254924
1991  2 0.0000 103.949321 25.604398  5.360045
1992  2 0.0000 115.811493 28.851312 11.583765
1993  2 0.0000 127.673666 32.098225 17.807484
1994  2 0.0000 139.535838 35.345139 24.031204
1995  2 0.0000 151.398010 38.592053 30.254924
1996  2 0.0000 115.811494 32.624165  5.360045
1997  2 0.0000 127.673666 35.871079 11.583765
1998  2 0.0000 139.535838 39.117993 17.807484
1999  2 0.0000 151.398010 42.364907 24.031204
2000  2 0.0000 163.260182 45.611821 30.254924
2001  2 0.0000  13.699011  6.059092  0.025815
2002  2 0.0000  25.561183  9.306006  6.249534
2003  2 0.0000  37.423355 12.552920 12.473254
2004  2 0.0000  49.285527 15.799834 18.696974
2005  2 0.0000  61.147699 19.046748 24.920693
2006  2 0.0000  25.561183 13.078860  0.025815
2007  2 0.0000  37.423355 16.325773  6.249534
2008  2 0.0000  49.285528 19.572687 12.473254
2009  2 0.0000  61.147700 22.819601 18.696974
2010  2 0.0000  73.009872 26.066515 24.920693
2011  2 0.0000  37.423356 20.098627  0.025815
2012  2 0.0000  49.285528 23.345541  6.249534
2013  2 0.0000  61.147700 26.592455 12.473254
2014  2 0.0000  73.009872 29.839369 18.696974
2015  2 0.0000  84.872044 33.086283 24.920693
2016  2 0.0000  49.285528 27.118395  0.025815
2017  2 0.0000  61.147701 30.365309  6.249534
2018  2 0.0000  73.009873 33.612223 12.473254
2019  2 0.0000  84.872045 36.859137 18.696974
2020  2 0.0000  96.734217 40.106050 24.920693
2021  2 0.0000  61.147701 34.138162  0.025815
2022  2 0.0000  73.009873 37.385076  6.249534
2023  2 0.0000  84.872045 40.631990 12.473254
2024  2 0.0000  96.734217 43.878904 18.696974
2025  2 0.0000 108.596390 47.125818 24.920693
2026  2 0.0000  27.482634  6.059092  0.025815
2027  2 0.0000  39.344806  9.306006  6.249534
2028  2 0.0000  51.206978 12.552920 12.473254
2029  2 0.0000  63.069151 15.799834 18.696974
2030  2 0.0000  74.931323 19.046748 24.920693
2031  2 0.0000  39.344807 13.078860  0.025815
2032  2 0.0000  51.206979 16.325773  6.249534
2033  2 0.0000  63.069151 19.572687 12.473254
2034  2 0.0000  74.931323 22.819601 18.696974
2035  2 0.0000  86.793495 26.066515 24.920693
2036  2 0.0000  51.206979 20.098627  0.025815
2037  2 0.0000  63.069152 23.345541  6.249534
2038  2 0.0000  74.931324 26.592455 12.473254
2039  2 0.0000  86.793496 29.839369 18.696974
2040  2 0.0000  98.655668 33.086283 24.920693
2041  2 0.0000  63.069152 27.118395  0.025815
2042  2 0.0000  74.931324 30.365309  6.249534
2043  2 0.0000  86.793496 33.612223 12.473254
2044  2 0.0000  98.655668 36.859137 18.696974
2045  2 0.0000 110.517841 40.106050 24.920693
2046  2 0.0000  74.931325 34.138162  0.025815
2047  2 0.0000  86.793497 37.385076  6.249534
2048  2 0.0000  98.655669 40.631990 12.473254
2049  2 0.0000 110.517841 43.878904 18.696974
2050  2 0.0000 122.380013 47.125818 24.920693
2051  2 0.0000  41.266258  6.059092  0.025815
2052  2 0.0000  53.128430  9.306006  6.249534
2053  2 0.0000  64.990602 12.552920 12.473254
2054  2 0.0000  76.852774 15.799834 18.696974
2055  2 0.0000  88.714946 19.046748 24.920693
2056  2 0.0000  53.128430 13.078860  0.025815
2057  2 0.0000  64.990602 16.325773  6.249534
2058  2 0.0000  76.852775 19.572687 12.473254
2059  2 0.0000  88.714947 22.819601 18.696974
2060  2 0.0000 100.577119 26.066515 24.920693
2061  2 0.0000  64.990603 20.098627  0.025815
2062  2 0.0000  76.852775 23.345541  6.249534
2063  2 0.0000  88.714947 26.592455 12.473254
2064  2 0.0000 100.577119 29.839369 18.696974
2065  2 0.0000 112.439291 33.086283 24.920693
2066  2 0.0000  76.852775 27.118395  0.025815
2067  2 0.0000  88.714948 30.365309  6.249534
2068  2 0.0000 100.577120 33.612223 12.473254
2069  2 0.0000 112.439292 36.859137 18.696974
2070  2 0.0000 124.301464 40.106050 24.920693
2071  2 0.0000  88.714948 34.138162  0.025815
2072  2 0.0000 100.577120 37.385076  6.249534
2073  2 0.0000 112.439292 40.631990 12.473254
2074  2 0.0000 124.301464 43.878904 18.696974
2075  2 0.0000 136.163637 47.125818 24.920693
2076  2 0.0000  55.049881  6.059092  0.025815
2077  2 0.0000  66.912053  9.306006  6.249534
2078  2 0.0000  78.774225 12.552920 12.473254
2079  2 0.0000  90.636398 15.799834 18.696974
2080  2 0.0000 102.498570 19.046748 24.920693
2081  2 0.0000  66.912054 13.078860  0.025815
2082  2 0.0000  78.774226 16.325773  6.249534
2083  2 0.0000  90.636398 19.572687 12.473254
2084  2 0.0000 102.498570 22.819601 18.696974
2085  2 0.0000 114.360742 26.066515 24.920693
2086  2 0.0000  78.774226 20.098627  0.025815
2087  2 0.0000  90.636398 23.345541  6.249534
2088  2 0.0000 102.498571 26.592455 12.473254
2089  2 0.0000 114.360743 29.839369 18.696974
2090  2 0.0000 126.222915 33.086283 24.920693
2091  2 0.0000  90.636399 27.118395  0.025815
2092  2 0.0000 102.498571 30.365309  6.249534
2093  2 0.0000 114.360743 33.612223 12.473254
2094  2 0.0000 126.222915 36.859137 18.696974
2095  2 0.0000 138.085087 40.106050 24.920693
2096  2 0.0000 102.498571 34.138162  0.025815
2097  2 0.0000 114.360744 37.385076  6.249534
2098  2 0.0000 126.222916 40.631990 12.473254
2099  2 0.0000 138.085088 43.878904 18.696974
2100  2 0.0000 149.947260 47.125818 24.920693
2101  2 0.0000  68.833505  6.059092  0.025815
2102  2 0.0000  80.695677  9.306006  6.249534
2103  2 0.0000  92.557849 12.552920 12.473254
2104  2 0.0000 104.420021 15.799834 18.696974
2105  2 0.0000 116.282193 19.046748 24.920693
2106  2 0.0000  80.695677 13.078860  0.025815
2107  2 0.0000  92.557849 16.325773  6.249534
2108  2 0.0000 104.420021 19.572687 12.473254
2109  2 0.0000 116.282194 22.819601 18.696974
2110  2 0.0000 128.144366 26.066515 24.920693
2111  2 0.0000  92.557850 20.098627  0.025815
2112  2 0.0000 104.420022 23.345541  6.249534
2113  2 0.0000 116.282194 26.592455 12.473254
2114  2 0.0000 128.144366 29.839369 18.696974
2115  2 0.0000 140.006538 33.086283 24.920693
2116  2 0.0000 104.420022 27.118395  0.025815
2117  2 0.0000 116.282195 30.365309  6.249534
2118  2 0.0000 128.144367 33.612223 12.473254
2119  2 0.0000 140.006539 36.859137 18.696974
2120  2 0.0000 151.868711 40.106050 24.920693
2121  2 0.0000 116.282195 34.138162  0.025815
2122  2 0.0000 128.144367 37.385076  6.249534
2123  2 0.0000 140.006539 40.631990 12.473254
2124  2 0.0000 151.868711 43.878904 18.696974
2125  2 0.0000 163.730883 47.125818 24.920693
2126  2 0.0000  14.875148  0.837986  1.550449
2127  2 0.0000  26.737321  4.084900  7.774168
2128  2 0.0000  38.599493  7.331813 13.997888
2129  2 0.0000  50.461665 10.578727 20.221608
2130  2 0.0000  62.323837 13.825641 26.445327
2131  2 0.0000  26.737321  7.857753  1.550449
2132  2 0.0000  38.599493 11.104667  7.774168
2133  2 0.0000  50.461665 14.351581 13.997888
2134  2 0.0000  62.323837 17.598495 20.221608
2135  2 0.0000  74.186010 20.845409 26.445327
2136  2 0.0000  38.599494 14.877521  1.550449
2137  2 0.0000  50.461666 18.124435  7.774168
2138  2 0.0000  62.323838 21.371349 13.997888
2139  2 0.0000  74.186010 24.618263 20.221608
2140  2 0.0000  86.048182 27.865177 26.445327
2141  2 0.0000  50.461666 21.897289  1.550449
2142  2 0.0000  62.323838 25.144202  7.774168
2143  2 0.0000  74.186011 28.391116 13.997888
2144  2 0.0000  86.048183 31.638030 20.221608
2145  2 0.0000  97.910355 34.884944 26.445327
2146  2 0.0000  62.323839 28.917056  1.550449
2147  2 0.0000  74.186011 32.163970  7.774168
2148  2 0.0000  86.048183 35.410884 13.997888
2149  2 0.0000  97.910355 38.657798 20.221608
2150  2 0.0000 109.772527 41.904712 26.445327
2151  2 0.0000  28.658772  0.837986  1.550449
2152  2 0.0000  40.520944  4.084900  7.774168
2153  2 0.0000  52.383116  7.331813 13.997888
2154  2 0.0000  64.245288 10.578727 20.221608
2155  2 0.0000  76.107460 13.825641 26.445327
2156  2 0.0000  40.520945  7.857753  1.550449
2157  2 0.0000  52.383117 11.104667  7.774168
2158  2 0.0000  64.245289 14.351581 13.997888
2159  2 0.0000  76.107461 17.598495 20.221608
2160  2 0.0000  87.969633 20.845409 26.445327
2161  2 0.0000  52.383117 14.877521  1.550449
2162  2 0.0000  64.245289 18.124435  7.774168
2163  2 0.0000  76.107461 21.371349 13.997888
2164  2 0.0000  87.969634 24.618263 20.221608
2165  2 0.0000  99.831806 27.865177 26.445327
2166  2 0.0000  64.245290 21.897289  1.550449
2167  2 0.0000  76.107462 25.144202  7.774168
2168  2 0.0000  87.969634 28.391116 13.997888
2169  2 0.0000  99.831806 31.638030 20.221608
2170  2 0.0000 111.693978 34.884944 26.445327
2171  2 0.0000  76.107462 28.917056  1.550449
2172  2 0.0000  87.969634 32.163970  7.774168
2173  2 0.0000  99.831807 35.410884 13.997888
2174  2 0.0000 111.693979 38.657798 20.221608
2175  2 0.0000 123.556151 41.904712 26.445327
2176  2 0.0000  42.442395  0.837986  1.550449
2177  2 0.0000  54.304568  4.084900  7.774168
2178  2 0.0000  66.166740  7.331813 13.997888
2179  2 0.0000  78.028912 10.578727 20.221608
2180  2 0.0000  89.891084 13.825641 26.445327
2181  2 0.0000  54.304568  7.857753  1.550449
2182  2 0.0000  66.166740 11.104667  7.774168
2183  2 0.0000  78.028912 14.351581 13.997888
2184  2 0.0000  89.891084 17.598495 20.221608
2185  2 0.0000 101.753257 20.845409 26.445327
2186  2 0.0000  66.166741 14.877521  1.550449
2187  2 0.0000  78.028913 18.124435  7.774168
2188  2 0.0000  89.891085 21.371349 13.997888
2189  2 0.0000 101.753257 24.618263 20.221608
2190  2 0.0000 113.615429 27.865177 26.445327
2191  2 0.0000  78.028913 21.897289  1.550449
2192  2 0.0000  89.891085 25.144202  7.774168
2193  2 0.0000 101.753257 28.391116 13.997888
2194  2 0.0000 113.615430 31.638030 20.221608
2195  2 0.0000 125.477602 34.884944 26.445327
2196  2 0.0000  89.891086 28.917056  1.550449
2197  2 0.0000 101.753258 32.163970  7.774168
2198  2 0.0000 113.615430 35.410884 13.997888
2199  2 0.0000 125.477602 38.657798 20.221608
2200  2 0.0000 137.339774 41.904712 26.445327
2201  2 0.0000  56.226019  0.837986  1.550449
2202  2 0.0000  68.088191  4.084900  7.774168
2203  2 0.0000  79.950363  7.331813 13.997888
2204  2 0.0000  91.812535 10.578727 20.221608
2205  2 0.0000 103.674707 13.825641 26.445327
2206  2 0.0000  68.088191  7.857753  1.550449
2207  2 0.0000  79.950364 11.104667  7.774168
2208  2 0.0000  91.812536 14.351581 13.997888
2209  2 0.0000 103.674708 17.598495 20.221608
2210  2 0.0000 115.536880 20.845409 26.445327
2211  2 0.0000  79.950364 14.877521  1.550449
2212  2 0.0000  91.812536 18.124435  7.774168
2213  2 0.0000 103.674708 21.371349 13.997888
2214  2 0.0000 115.536880 24.618263 20.221608
2215  2 0.0000 127.399053 27.865177 26.445327
2216  2 0.0000  91.812537 21.897289  1.550449
2217  2 0.0000 103.674709 25.144202  7.774168
2218  2 0.0000 115.536881 28.391116 13.997888
2219  2 0.0000 127.399053 31.638030 20.221608
2220  2 0.0000 139.261225 34.884944 26.445327
2221  2 0.0000 103.674709 28.917056  1.550449
2222  2 0.0000 115.536881 32.163970  7.774168
2223  2 0.0000 127.399053 35.410884 13.997888
2224  2 0.0000 139.261226 38.657798 20.221608
2225  2 0.0000 151.123398 41.904712 26.445327
2226  2 0.0000  70.009642  0.837986  1.550449
2227  2 0.0000  81.871815  4.084900  7.774168
2228  2 0.0000  93.733987  7.331813 13.997888
2229  2 0.0000 105.596159 10.578727 20.221608
2230  2 0.0000 117.458331 13.825641 26.445327
2231  2 0.0000  81.871815  7.857753  1.550449
2232  2 0.0000  93.733987 11.104667  7.774168
2233  2 0.0000 105.596159 14.351581 13.997888
2234  2 0.0000 117.458331 17.598495 20.221608
2235  2 0.0000 129.320503 20.845409 26.445327
2236  2 0.0000  93.733988 14.877521  1.550449
2237  2 0.0000 105.596160 18.124435  7.774168
2238  2 0.0000 117.458332 21.371349 13.997888
2239  2 0.0000 129.320504 24.618263 20.221608
2240  2 0.0000 141.182676 27.865177 26.445327
2241  2 0.0000 105.596160 21.897289  1.550449
2242  2 0.0000 117.458332 25.144202  7.774168
2243  2 0.0000 129.320504 28.391116 13.997888
2244  2 0.0000 141.182677 31.638030 20.221608
2245  2 0.0000 153.044849 34.884944 26.445327
2246  2 0.0000 117.458333 28.917056  1.550449
2247  2 0.0000 129.320505 32.163970  7.774168
2248  2 0.0000 141.182677 35.410884 13.997888
2249  2 0.0000 153.044849 38.657798 20.221608
2250  2 0.0000 164.907021 41.904712 26.445327
2251  3 0.0000  20.286771  6.077028  2.085941
2252  3 0.0000  32.148943  9.323942  8.309660
2253  3 0.0000  44.011115 12.570856 14.533380
2254  3 0.0000  55.873287 15.817770 20.757100
2255  3 0.0000  67.735459 19.064684 26.980819
2256  3 0.0000  32.148943 13.096796  2.085941
2257  3 0.0000  44.011116 16.343709  8.309660
2258  3 0.0000  55.873288 19.590623 14.533380
2259  3 0.0000  67.735460 22.837537 20.757100
2260  3 0.0000  79.597632 26.084451 26.980819
2261  3 0.0000  44.011116 20.116563  2.085941
2262  3 0.0000  55.873288 23.363477  8.309660
2263  3 0.0000  67.735460 26.610391 14.533380
2264  3 0.0000  79.597632 29.857305 20.757100
2265  3 0.0000  91.459805 33.104219 26.980819
2266  3 0.0000  55.873289 27.136331  2.085941
2267  3 0.0000  67.735461 30.383245  8.309660
2268  3 0.0000  79.597633 33.630159 14.533380
2269  3 0.0000  91.459805 36.877073 20.757100
2270  3 0.0000 103.321977 40.123986 26.980819
2271  3 0.0000  67.735461 34.156098  2.085941
2272  3 0.0000  79.597633 37.403012  8.309660
2273  3 0.0000  91.459805 40.649926 14.533380
2274  3 0.0000 103.321978 43.896840 20.757100
2275  3 0.0000 115.184150 47.143754 26.980819
2276  3 0.0000  34.070394  6.077028  2.085941
2277  3 0.0000  45.932566  9.323942  8.309660
2278  3 0.0000  57.794739 12.570856 14.533380
2279  3 0.0000  69.656911 15.817770 20.757100
2280  3 0.0000  81.519083 19.064684 26.980819
2281  3 0.0000  45.932567 13.096796  2.085941
2282  3 0.0000  57.794739 16.343709  8.309660
2283  3 0.0000  69.656911 19.590623 14.533380
2284  3 0.0000  81.519083 22.837537 20.757100
2285  3 0.0000  93.381255 26.084451 26.980819
2286  3 0.0000  57.794739 20.116563  2.085941
2287  3 0.0000  69.656912 23.363477  8.309660
2288  3 0.0000  81.519084 26.610391 14.533380
2289  3 0.0000  93.381256 29.857305 20.757100
2290  3 0.0000 105.243428 33.104219 26.980819
2291  3 0.0000  69.656912 27.136331  2.085941
2292  3 0.0000  81.519084 30.383245  8.309660
2293  3 0.0000  93.381256 33.630159 14.533380
2294  3 0.0000 105.243428 36.877073 20.757100
2295  3 0.0000 117.105601 40.123986 26.980819
2296  3 0.0000  81.519085 34.156098  2.085941
2297  3 0.0000  93.381257 37.403012  8.309660
2298  3 0.0000 105.243429 40.649926 14.533380
2299  3 0.0000 117.105601 43.896840 20.757100
2300  3 0.0000 128.967773 47.143754 26.980819
2301  3 0.0000  47.854018  6.077028  2.085941
2302  3 0.0000  59.716190  9.323942  8.309660
2303  3 0.0000  71.578362 12.570856 14.533380
2304  3 0.0000  83.440534 15.817770 20.757100
2305  3 0.0000  95.302706 19.064684 26.980819
2306  3 0.0000  59.716190 13.096796  2.085941
2307  3 0.0000  71.578363 16.343709  8.309660
2308  3 0.0000  83.440535 19.590623 14.533380
2309  3 0.0000  95.302707 22.837537 20.757100
2310  3 0.0000 107.164879 26.084451 26.980819
2311  3 0.0000  71.578363 20.116563  2.085941
2312  3 0.0000  83.440535 23.363477  8.309660
2313  3 0.0000  95.302707 26.610391 14.533380
2314  3 0.0000 107.164879 29.857305 20.757100
2315  3 0.0000 119.027052 33.104219 26.980819
2316  3 0.0000  83.440536 27.136331  2.085941
2317  3 0.0000  95.302708 30.383245  8.309660
2318  3 0.0000 107.164880 33.630159 14.533380
2319  3 0.0000 119.027052 36.877073 20.757100
2320  3 0.0000 130.889224 40.123986 26.980819
2321  3 0.0000  95.302708 34.156098  2.085941
2322  3 0.0000 107.164880 37.403012  8.309660
2323  3 0.0000 119.027052 40.649926 14.533380
2324  3 0.0000 130.889225 43.896840 20.757100
2325  3 0.0000 142.751397 47.143754 26.980819
2326  3 0.0000  61.637641  6.077028  2.085941
2327  3 0.0000  73.499813  9.323942  8.309660
2328  3 0.0000  85.361986 12.570856 14.533380
2329  3 0.0000  97.224158 15.817770 20.757100
2330  3 0.0000 109.086330 19.064684 26.980819
2331  3 0.0000  73.499814 13.096796  2.085941
2332  3 0.0000  85.361986 16.343709  8.309660
2333  3 0.0000  97.224158 19.590623 14.533380
2334  3 0.0000 109.086330 22.837537 20.757100
2335  3 0.0000 120.948502 26.084451 26.980819
2336  3 0.0000  85.361986 20.116563  2.085941
2337  3 0.0000  97.224159 23.363477  8.309660
2338  3 0.0000 109.086331 26.610391 14.533380
2339  3 0.0000 120.948503 29.857305 20.757100
2340  3 0.0000 132.810675 33.104219 26.980819
2341  3 0.0000  97.224159 27.136331  2.085941
2342  3 0.0000 109.086331 30.383245  8.309660
2343  3 0.0000 120.948503 33.630159 14.533380
2344  3 0.0000 132.810675 36.877073 20.757100
2345  3 0.0000 144.672848 40.123986 26.980819
2346  3 0.0000 109.086332 34.156098  2.085941
2347  3 0.0000 120.948504 37.403012  8.309660
2348  3 0.0000 132.810676 40.649926 14.533380
2349  3 0.0000 144.672848 43.896840 20.757100
2350  3 0.0000 156.535020 47.143754 26.980819
2351  3 0.0000  75.421265  6.077028  2.085941
2352  3 0.0000  87.283437  9.323942  8.309660
2353  3 0.0000  99.145609 12.570856 14.533380
2354  3 0.0000 111.007781 15.817770 20.757100
2355  3 0.0000 122.869953 19.064684 26.980819
2356  3 0.0000  87.283437 13.096796  2.085941
2357  3 0.0000  99.145609 16.343709  8.309660
2358  3 0.0000 111.007782 19.590623 14.533380
2359  3 0.0000 122.869954 22.837537 20.757100
2360  3 0.0000 134.732126 26.084451 26.980819
2361  3 0.0000  99.145610 20.116563  2.085941
2362  3 0.0000 111.007782 23.363477  8.309660
2363  3 0.0000 122.869954 26.610391 14.533380
2364  3 0.0000 134.732126 29.857305 20.757100
2365  3 0.0000 146.594298 33.104219 26.980819
2366  3 0.0000 111.007782 27.136331  2.085941
2367  3 0.0000 122.869955 30.383245  8.309660
2368  3 0.0000 134.732127 33.630159 14.533380
2369  3 0.0000 146.594299 36.877073 20.757100
2370  3 0.0000 158.456471 40.123986 26.980819
2371  3 0.0000 122.869955 34.156098  2.085941
2372  3 0.0000 134.732127 37.403012  8.309660
2373  3 0.0000 146.594299 40.649926 14.533380
2374  3 0.0000 158.456471 43.896840 20.757100
2375  3 0.0000 170.318644 47.143754 26.980819
2376  3 0.0000  20.553703  4.209185  3.558447
2377  3 0.0000  32.415875  7.456099  9.782167
2378  3 0.0000  44.278047 10.703013 16.005886
2379  3 0.0000  56.140219 13.949927 22.229606
2380  3 0.0000  68.002391 17.196841 28.453326
2381  3 0.0000  32.415875 11.228953  3.558447
2382  3 0.0000  44.278047 14.475867  9.782167
2383  3 0.0000  56.140220 17.722781 16.005886
2384  3 0.0000  68.002392 20.969695 22.229606
2385  3 0.0000  79.864564 24.216609 28.453326
2386  3 0.0000  44.278048 18.248721  3.558447
2387  3 0.0000  56.140220 21.495635  9.782167
2388  3 0.0000  68.002392 24.742549 16.005886
2389  3 0.0000  79.864564 27.989462 22.229606
2390  3 0.0000  91.726736 31.236376 28.453326
2391  3 0.0000  56.140220 25.268488  3.558447
2392  3 0.0000  68.002393 28.515402  9.782167
2393  3 0.0000  79.864565 31.762316 16.005886
2394  3 0.0000  91.726737 35.009230 22.229606
2395  3 0.0000 103.588909 38.256144 28.453326
2396  3 0.0000  68.002393 32.288256  3.558447
2397  3 0.0000  79.864565 35.535170  9.782167
2398  3 0.0000  91.726737 38.782084 16.005886
2399  3 0.0000 103.588909 42.028998 22.229606
2400  3 0.0000 115.451082 45.275912 28.453326
2401  3 0.0000  34.337326  4.209185  3.558447
2402  3 0.0000  46.199498  7.456099  9.782167
2403  3 0.0000  58.061670 10.703013 16.005886
2404  3 0.0000  69.923843 13.949927 22.229606
2405  3 0.0000  81.786015 17.196841 28.453326
2406  3 0.0000  46.199499 11.228953  3.558447
2407  3 0.0000  58.061671 14.475867  9.782167
2408  3 0.0000  69.923843 17.722781 16.005886
2409  3 0.0000  81.786015 20.969695 22.229606
2410  3 0.0000  93.648187 24.216609 28.453326
2411  3 0.0000  58.061671 18.248721  3.558447
2412  3 0.0000  69.923843 21.495635  9.782167
2413  3 0.0000  81.786016 24.742549 16.005886
2414  3 0.0000  93.648188 27.989462 22.229606
2415  3 0.0000 105.510360 31.236376 28.453326
2416  3 0.0000  69.923844 25.268488  3.558447
2417  3 0.0000  81.786016 28.515402  9.782167
2418  3 0.0000  93.648188 31.762316 16.005886
2419  3 0.0000 105.510360 35.009230 22.229606
2420  3 0.0000 117.372532 38.256144 28.453326
2421  3 0.0000  81.786017 32.288256  3.558447
2422  3 0.0000  93.648189 35.535170  9.782167
2423  3 0.0000 105.510361 38.782084 16.005886
2424  3 0.0000 117.372533 42.028998 22.229606
2425  3 0.0000 129.234705 45.275912 28.453326
2426  3 0.0000  48.120950  4.209185  3.558447
2427  3 0.0000  59.983122  7.456099  9.782167
2428  3 0.0000  71.845294 10.703013 16.005886
2429  3 0.0000  83.707466 13.949927 22.229606
2430  3 0.0000  95.569638 17.196841 28.453326
2431  3 0.0000  59.983122 11.228953  3.558447
2432  3 0.0000  71.845294 14.475867  9.782167
2433  3 0.0000  83.707467 17.722781 16.005886
2434  3 0.0000  95.569639 20.969695 22.229606
2435  3 0.0000 107.431811 24.216609 28.453326
2436  3 0.0000  71.845295 18.248721  3.558447
2437  3 0.0000  83.707467 21.495635  9.782167
2438  3 0.0000  95.569639 24.742549 16.005886
2439  3 0.0000 107.431811 27.989462 22.229606
2440  3 0.0000 119.293983 31.236376 28.453326
2441  3 0.0000  83.707467 25.268488  3.558447
2442  3 0.0000  95.569640 28.515402  9.782167
2443  3 0.0000 107.431812 31.762316 16.005886
2444  3 0.0000 119.293984 35.009230 22.229606
2445  3 0.0000 131.156156 38.256144 28.453326
2446  3 0.0000  95.569640 32.288256  3.558447
2447  3 0.0000 107.431812 35.535170  9.782167
2448  3 0.0000 119.293984 38.782084 16.005886
2449  3 0.0000 131.156156 42.028998 22.229606
2450  3 0.0000 143.018329 45.275912 28.453326
2451  3 0.0000  61.904573  4.209185  3.558447
2452  3 0.0000  73.766745  7.456099  9.782167
2453  3 0.0000  85.628917 10.703013 16.005886
2454  3 0.0000  97.491090 13.949927 22.229606
2455  3 0.0000 109.353262 17.196841 28.453326
2456  3 0.0000  73.766746 11.228953  3.558447
2457  3 0.0000  85.628918 14.475867  9.782167
2458  3 0.0000  97.491090 17.722781 16.005886
2459  3 0.0000 109.353262 20.969695 22.229606
2460  3 0.0000 121.215434 24.216609 28.453326
2461  3 0.0000  85.628918 18.248721  3.558447
2462  3 0.0000  97.491090 21.495635  9.782167
2463  3 0.0000 109.353263 24.742549 16.005886
2464  3 0.0000 121.215435 27.989462 22.229606
2465  3 0.0000 133.077607 31.236376 28.453326
2466  3 0.0000  97.491091 25.268488  3.558447
2467  3 0.0000 109.353263 28.515402  9.782167
2468  3 0.0000 121.215435 31.762316 16.005886
2469  3 0.0000 133.077607 35.009230 22.229606
2470  3 0.0000 144.939779 38.256144 28.453326
2471  3 0.0000 109.353263 32.288256  3.558447
2472  3 0.0000 121.215436 35.535170  9.782167
2473  3 0.0000 133.077608 38.782084 16.005886
2474  3 0.0000 144.939780 42.028998 22.229606
2475  3 0.0000 156.801952 45.275912 28.453326
2476  3 0.0000  75.688197  4.209185  3.558447
2477  3 0.0000  87.550369  7.456099  9.782167
2478  3 0.0000  99.412541 10.703013 16.005886
2479  3 0.0000 111.274713 13.949927 22.229606
2480  3 0.0000 123.136885 17.196841 28.453326
2481  3 0.0000  87.550369 11.228953  3.558447
2482  3 0.0000  99.412541 14.475867  9.782167
2483  3 0.0000 111.274713 17.722781 16.005886
2484  3 0.0000 123.136886 20.969695 22.229606
2485  3 0.0000 134.999058 24.216609 28.453326
2486  3 0.0000  99.412542 18.248721  3.558447
2487  3 0.0000 111.274714 21.495635  9.782167
2488  3 0.0000 123.136886 24.742549 16.005886
2489  3 0.0000 134.999058 27.989462 22.229606
2490  3 0.0000 146.861230 31.236376 28.453326
2491  3 0.0000 111.274714 25.268488  3.558447
2492  3 0.0000 123.136886 28.515402  9.782167
2493  3 0.0000 134.999059 31.762316 16.005886
2494  3 0.0000 146.861231 35.009230 22.229606
2495  3 0.0000 158.723403 38.256144 28.453326
2496  3 0.0000 123.136887 32.288256  3.558447
2497  3 0.0000 134.999059 35.535170  9.782167
2498  3 0.0000 146.861231 38.782084 16.005886
2499  3 0.0000 158.723403 42.028998 22.229606
2500  3 0.0000 170.585575 45.275912 28.453326
2501  3 0.0000  19.832163  6.321102  4.423059
2502  3 0.0000  31.694335  9.568016 10.646779
2503  3 0.0000  43.556508 12.814929 16.870499
2504  3 0.0000  55.418680 16.061843 23.094218
2505  3 0.0000  67.280852 19.308757 29.317938
2506  3 0.0000  31.694336 13.340869  4.423059
2507  3 0.0000  43.556508 16.587783 10.646779
2508  3 0.0000  55.418680 19.834697 16.870499
2509  3 0.0000  67.280852 23.081611 23.094218
2510  3 0.0000  79.143024 26.328525 29.317938
2511  3 0.0000  43.556508 20.360637  4.423059
2512  3 0.0000  55.418681 23.607551 10.646779
2513  3 0.0000  67.280853 26.854465 16.870499
2514  3 0.0000  79.143025 30.101379 23.094218
2515  3 0.0000  91.005197 33.348293 29.317938
2516  3 0.0000  55.418681 27.380405  4.423059
2517  3 0.0000  67.280853 30.627318 10.646779
2518  3 0.0000  79.143025 33.874232 16.870499
2519  3 0.0000  91.005197 37.121146 23.094218
2520  3 0.0000 102.867370 40.368060 29.317938
2521  3 0.0000  67.280854 34.400172  4.423059
2522  3 0.0000  79.143026 37.647086 10.646779
2523  3 0.0000  91.005198 40.894000 16.870499
2524  3 0.0000 102.867370 44.140914 23.094218
2525  3 0.0000 114.729542 47.387828 29.317938
2526  3 0.0000  33.615787  6.321102  4.423059
2527  3 0.0000  45.477959  9.568016 10.646779
2528  3 0.0000  57.340131 12.814929 16.870499
2529  3 0.0000  69.202303 16.061843 23.094218
2530  3 0.0000  81.064475 19.308757 29.317938
2531  3 0.0000  45.477959 13.340869  4.423059
2532  3 0.0000  57.340131 16.587783 10.646779
2533  3 0.0000  69.202304 19.834697 16.870499
2534  3 0.0000  81.064476 23.081611 23.094218
2535  3 0.0000  92.926648 26.328525 29.317938
2536  3 0.0000  57.340132 20.360637  4.423059
2537  3 0.0000  69.202304 23.607551 10.646779
2538  3 0.0000  81.064476 26.854465 16.870499
2539  3 0.0000  92.926648 30.101379 23.094218
2540  3 0.0000 104.788820 33.348293 29.317938
2541  3 0.0000  69.202305 27.380405  4.423059
2542  3 0.0000  81.064477 30.627318 10.646779
2543  3 0.0000  92.926649 33.874232 16.870499
2544  3 0.0000 104.788821 37.121146 23.094218
2545  3 0.0000 116.650993 40.368060 29.317938
2546  3 0.0000  81.064477 34.400172  4.423059
2547  3 0.0000  92.926649 37.647086 10.646779
2548  3 0.0000 104.788821 40.894000 16.870499
2549  3 0.0000 116.650994 44.140914 23.094218
2550  3 0.0000 128.513166 47.387828 29.317938
2551  3 0.0000  47.399410  6.321102  4.423059
2552  3 0.0000  59.261582  9.568016 10.646779
2553  3 0.0000  71.123755 12.814929 16.870499
2554  3 0.0000  82.985927 16.061843 23.094218
2555  3 0.0000  94.848099 19.308757 29.317938
2556  3 0.0000  59.261583 13.340869  4.423059
2557  3 0.0000  71.123755 16.587783 10.646779
2558  3 0.0000  82.985927 19.834697 16.870499
2559  3 0.0000  94.848099 23.081611 23.094218
2560  3 0.0000 106.710271 26.328525 29.317938
2561  3 0.0000  71.123755 20.360637  4.423059
2562  3 0.0000  82.985928 23.607551 10.646779
2563  3 0.0000  94.848100 26.854465 16.870499
2564  3 0.0000 106.710272 30.101379 23.094218
2565  3 0.0000 118.572444 33.348293 29.317938
2566  3 0.0000  82.985928 27.380405  4.423059
2567  3 0.0000  94.848100 30.627318 10.646779
2568  3 0.0000 106.710272 33.874232 16.870499
2569  3 0.0000 118.572444 37.121146 23.094218
2570  3 0.0000 130.434617 40.368060 29.317938
2571  3 0.0000  94.848101 34.400172  4.423059
2572  3 0.0000 106.710273 37.647086 10.646779
2573  3 0.0000 118.572445 40.894000 16.870499
2574  3 0.0000 130.434617 44.140914 23.094218
2575  3 0.0000 142.296789 47.387828 29.317938
2576  3 0.0000  61.183034  6.321102  4.423059
2577  3 0.0000  73.045206  9.568016 10.646779
2578  3 0.0000  84.907378 12.814929 16.870499
2579  3 0.0000  96.769550 16.061843 23.094218
2580  3 0.0000 108.631722 19.308757 29.317938
2581  3 0.0000  73.045206 13.340869  4.423059
2582  3 0.0000  84.907378 16.587783 10.646779
2583  3 0.0000  96.769551 19.834697 16.870499
2584  3 0.0000 108.631723 23.081611 23.094218
2585  3 0.0000 120.493895 26.328525 29.317938
2586  3 0.0000  84.907379 20.360637  4.423059
2587  3 0.0000  96.769551 23.607551 10.646779
2588  3 0.0000 108.631723 26.854465 16.870499
2589  3 0.0000 120.493895 30.101379 23.094218
2590  3 0.0000 132.356067 33.348293 29.317938
2591  3 0.0000  96.769551 27.380405  4.423059
2592  3 0.0000 108.631724 30.627318 10.646779
2593  3 0.0000 120.493896 33.874232 16.870499
2594  3 0.0000 132.356068 37.121146 23.094218
2595  3 0.0000 144.218240 40.368060 29.317938
2596  3 0.0000 108.631724 34.400172  4.423059
2597  3 0.0000 120.493896 37.647086 10.646779
2598  3 0.0000 132.356068 40.894000 16.870499
2599  3 0.0000 144.218240 44.140914 23.094218
2600  3 0.0000 156.080413 47.387828 29.317938
2601  3 0.0000  74.966657  6.321102  4.423059
2602  3 0.0000  86.828829  9.568016 10.646779
2603  3 0.0000  98.691001 12.814929 16.870499
2604  3 0.0000 110.553174 16.061843 23.094218
2605  3 0.0000 122.415346 19.308757 29.317938
2606  3 0.0000  86.828830 13.340869  4.423059
2607  3 0.0000  98.691002 16.587783 10.646779
2608  3 0.0000 110.553174 19.834697 16.870499
2609  3 0.0000 122.415346 23.081611 23.094218
2610  3 0.0000 134.277518 26.328525 29.317938
2611  3 0.0000  98.691002 20.360637  4.423059
2612  3 0.0000 110.553174 23.607551 10.646779
2613  3 0.0000 122.415347 26.854465 16.870499
2614  3 0.0000 134.277519 30.101379 23.094218
2615  3 0.0000 146.139691 33.348293 29.317938
2616  3 0.0000 110.553175 27.380405  4.423059
2617  3 0.0000 122.415347 30.627318 10.646779
2618  3 0.0000 134.277519 33.874232 16.870499
2619  3 0.0000 146.139691 37.121146 23.094218
2620  3 0.0000 158.001863 40.368060 29.317938
2621  3 0.0000 122.415348 34.400172  4.423059
2622  3 0.0000 134.277520 37.647086 10.646779
2623  3 0.0000 146.139692 40.894000 16.870499
2624  3 0.0000 158.001864 44.140914 23.094218
2625  3 0.0000 169.864036 47.387828 29.317938
2626  3 0.0000  23.846077  7.051281  1.025919
2627  3 0.0000  35.708249 10.298195  7.249639
2628  3 0.0000  47.570422 13.545109 13.473358
2629  3 0.0000  59.432594 16.792023 19.697078
2630  3 0.0000  71.294766 20.038937 25.920798
2631  3 0.0000  35.708250 14.071049  1.025919
2632  3 0.0000  47.570422 17.317963  7.249639
2633  3 0.0000  59.432594 20.564877 13.473358
2634  3 0.0000  71.294766 23.811791 19.697078
2635  3 0.0000  83.156938 27.058705 25.920798
2636  3 0.0000  47.570422 21.090817  1.025919
2637  3 0.0000  59.432595 24.337730  7.249639
2638  3 0.0000  71.294767 27.584644 13.473358
2639  3 0.0000  83.156939 30.831558 19.697078
2640  3 0.0000  95.019111 34.078472 25.920798
2641  3 0.0000  59.432595 28.110584  1.025919
2642  3 0.0000  71.294767 31.357498  7.249639
2643  3 0.0000  83.156939 34.604412 13.473358
2644  3 0.0000  95.019111 37.851326 19.697078
2645  3 0.0000 106.881284 41.098240 25.920798
2646  3 0.0000  71.294768 35.130352  1.025919
2647  3 0.0000  83.156940 38.377266  7.249639
2648  3 0.0000  95.019112 41.624180 13.473358
2649  3 0.0000 106.881284 44.871094 19.697078
2650  3 0.0000 118.743456 48.118007 25.920798
2651  3 0.0000  37.629701  7.051281  1.025919
2652  3 0.0000  49.491873 10.298195  7.249639
2653  3 0.0000  61.354045 13.545109 13.473358
2654  3 0.0000  73.216217 16.792023 19.697078
2655  3 0.0000  85.078389 20.038937 25.920798
2656  3 0.0000  49.491873 14.071049  1.025919
2657  3 0.0000  61.354045 17.317963  7.249639
2658  3 0.0000  73.216218 20.564877 13.473358
2659  3 0.0000  85.078390 23.811791 19.697078
2660  3 0.0000  96.940562 27.058705 25.920798
2661  3 0.0000  61.354046 21.090817  1.025919
2662  3 0.0000  73.216218 24.337730  7.249639
2663  3 0.0000  85.078390 27.584644 13.473358
2664  3 0.0000  96.940562 30.831558 19.697078
2665  3 0.0000 108.802734 34.078472 25.920798
2666  3 0.0000  73.216219 28.110584  1.025919
2667  3 0.0000  85.078391 31.357498  7.249639
2668  3 0.0000  96.940563 34.604412 13.473358
2669  3 0.0000 108.802735 37.851326 19.697078
2670  3 0.0000 120.664907 41.098240 25.920798
2671  3 0.0000  85.078391 35.130352  1.025919
2672  3 0.0000  96.940563 38.377266  7.249639
2673  3 0.0000 108.802735 41.624180 13.473358
2674  3 0.0000 120.664908 44.871094 19.697078
2675  3 0.0000 132.527080 48.118007 25.920798
2676  3 0.0000  51.413324  7.051281  1.025919
2677  3 0.0000  63.275496 10.298195  7.249639
2678  3 0.0000  75.137669 13.545109 13.473358
2679  3 0.0000  86.999841 16.792023 19.697078
2680  3 0.0000  98.862013 20.038937 25.920798
2681  3 0.0000  63.275497 14.071049  1.025919
2682  3 0.0000  75.137669 17.317963  7.249639
2683  3 0.0000  86.999841 20.564877 13.473358
2684  3 0.0000  98.862013 23.811791 19.697078
2685  3 0.0000 110.724185 27.058705 25.920798
2686  3 0.0000  75.137669 21.090817  1.025919
2687  3 0.0000  86.999842 24.337730  7.249639
2688  3 0.0000  98.862014 27.584644 13.473358
2689  3 0.0000 110.724186 30.831558 19.697078
2690  3 0.0000 122.586358 34.078472 25.920798
2691  3 0.0000  86.999842 28.110584  1.025919
2692  3 0.0000  98.862014 31.357498  7.249639
2693  3 0.0000 110.724186 34.604412 13.473358
2694  3 0.0000 122.586358 37.851326 19.697078
2695  3 0.0000 134.448531 41.098240 25.920798
2696  3 0.0000  98.862015 35.130352  1.025919
2697  3 0.0000 110.724187 38.377266  7.249639
2698  3 0.0000 122.586359 41.624180 13.473358
2699  3 0.0000 134.448531 44.871094 19.697078
2700  3 0.0000 146.310703 48.118007 25.920798
2701  3 0.0000  65.196948  7.051281  1.025919
2702  3 0.0000  77.059120 10.298195  7.249639
2703  3 0.0000  88.921292 13.545109 13.473358
2704  3 0.0000 100.783464 16.792023 19.697078
2705  3 0.0000 112.645636 20.038937 25.920798
2706  3 0.0000  77.059120 14.071049  1.025919
2707  3 0.0000  88.921292 17.317963  7.249639
2708  3 0.0000 100.783465 20.564877 13.473358
2709  3 0.0000 112.645637 23.811791 19.697078
2710  3 0.0000 124.507809 27.058705 25.920798
2711  3 0.0000  88.921293 21.090817  1.025919
2712  3 0.0000 100.783465 24.337730  7.249639
2713  3 0.0000 112.645637 27.584644 13.473358
2714  3 0.0000 124.507809 30.831558 19.697078
2715  3 0.0000 136.369981 34.078472 25.920798
2716  3 0.0000 100.783465 28.110584  1.025919
2717  3 0.0000 112.645638 31.357498  7.249639
2718  3 0.0000 124.507810 34.604412 13.473358
2719  3 0.0000 136.369982 37.851326 19.697078
2720  3 0.0000 148.232154 41.098240 25.920798
2721  3 0.0000 112.645638 35.130352  1.025919
2722  3 0.0000 124.507810 38.377266  7.249639
2723  3 0.0000 136.369982 41.624180 13.473358
2724  3 0.0000 148.232154 44.871094 19.697078
2725  3 0.0000 160.094327 48.118007 25.920798
2726  3 0.0000  78.980571  7.051281  1.025919
2727  3 0.0000  90.842743 10.298195  7.249639
2728  3 0.0000 102.704915 13.545109 13.473358
2729  3 0.0000 114.567088 16.792023 19.697078
2730  3 0.0000 126.429260 20.038937 25.920798
2731  3 0.0000  90.842744 14.071049  1.025919
2732  3 0.0000 102.704916 17.317963  7.249639
2733  3 0.0000 114.567088 20.564877 13.473358
2734  3 0.0000 126.429260 23.811791 19.697078
2735  3 0.0000 138.291432 27.058705 25.920798
2736  3 0.0000 102.704916 21.090817  1.025919
2737  3 0.0000 114.567088 24.337730  7.249639
2738  3 0.0000 126.429261 27.584644 13.473358
2739  3 0.0000 138.291433 30.831558 19.697078
2740  3 0.0000 150.153605 34.078472 25.920798
2741  3 0.0000 114.567089 28.110584  1.025919
2742  3 0.0000 126.429261 31.357498  7.249639
2743  3 0.0000 138.291433 34.604412 13.473358
2744  3 0.0000 150.153605 37.851326 19.697078
2745  3 0.0000 162.015777 41.098240 25.920798
2746  3 0.0000 126.429262 35.130352  1.025919
2747  3 0.0000 138.291434 38.377266  7.249639
2748  3 0.0000 150.153606 41.624180 13.473358
2749  3 0.0000 162.015778 44.871094 19.697078
2750  3 0.0000 173.877950 48.118007 25.920798
2751  3 0.0000  24.113009  3.720001  4.912520
2752  3 0.0000  35.975181  6.966915 11.136240
2753  3 0.0000  47.837353 10.213829 17.359959
2754  3 0.0000  59.699525 13.460743 23.583679
2755  3 0.0000  71.561698 16.707657 29.807399
2756  3 0.0000  35.975182 10.739769  4.912520
2757  3 0.0000  47.837354 13.986683 11.136240
2758  3 0.0000  59.699526 17.233597 17.359959
2759  3 0.0000  71.561698 20.480511 23.583679
2760  3 0.0000  83.423870 23.727424 29.807399
2761  3 0.0000  47.837354 17.759536  4.912520
2762  3 0.0000  59.699526 21.006450 11.136240
2763  3 0.0000  71.561698 24.253364 17.359959
2764  3 0.0000  83.423871 27.500278 23.583679
2765  3 0.0000  95.286043 30.747192 29.807399
2766  3 0.0000  59.699527 24.779304  4.912520
2767  3 0.0000  71.561699 28.026218 11.136240
2768  3 0.0000  83.423871 31.273132 17.359959
2769  3 0.0000  95.286043 34.520046 23.583679
2770  3 0.0000 107.148215 37.766960 29.807399
2771  3 0.0000  71.561699 31.799072  4.912520
2772  3 0.0000  83.423871 35.045986 11.136240
2773  3 0.0000  95.286044 38.292900 17.359959
2774  3 0.0000 107.148216 41.539813 23.583679
2775  3 0.0000 119.010388 44.786727 29.807399
2776  3 0.0000  37.896632  3.720001  4.912520
2777  3 0.0000  49.758805  6.966915 11.136240
2778  3 0.0000  61.620977 10.213829 17.359959
2779  3 0.0000  73.483149 13.460743 23.583679
2780  3 0.0000  85.345321 16.707657 29.807399
2781  3 0.0000  49.758805 10.739769  4.912520
2782  3 0.0000  61.620977 13.986683 11.136240
2783  3 0.0000  73.483149 17.233597 17.359959
2784  3 0.0000  85.345321 20.480511 23.583679
2785  3 0.0000  97.207494 23.727424 29.807399
2786  3 0.0000  61.620978 17.759536  4.912520
2787  3 0.0000  73.483150 21.006450 11.136240
2788  3 0.0000  85.345322 24.253364 17.359959
2789  3 0.0000  97.207494 27.500278 23.583679
2790  3 0.0000 109.069666 30.747192 29.807399
2791  3 0.0000  73.483150 24.779304  4.912520
2792  3 0.0000  85.345322 28.026218 11.136240
2793  3 0.0000  97.207494 31.273132 17.359959
2794  3 0.0000 109.069667 34.520046 23.583679
2795  3 0.0000 120.931839 37.766960 29.807399
2796  3 0.0000  85.345323 31.799072  4.912520
2797  3 0.0000  97.207495 35.045986 11.136240
2798  3 0.0000 109.069667 38.292900 17.359959
2799  3 0.0000 120.931839 41.539813 23.583679
2800  3 0.0000 132.794011 44.786727 29.807399
2801  3 0.0000  51.680256  3.720001  4.912520
2802  3 0.0000  63.542428  6.966915 11.136240
2803  3 0.0000  75.404600 10.213829 17.359959
2804  3 0.0000  87.266772 13.460743 23.583679
2805  3 0.0000  99.128944 16.707657 29.807399
2806  3 0.0000  63.542429 10.739769  4.912520
2807  3 0.0000  75.404601 13.986683 11.136240
2808  3 0.0000  87.266773 17.233597 17.359959
2809  3 0.0000  99.128945 20.480511 23.583679
2810  3 0.0000 110.991117 23.727424 29.807399
2811  3 0.0000  75.404601 17.759536  4.912520
2812  3 0.0000  87.266773 21.006450 11.136240
2813  3 0.0000  99.128945 24.253364 17.359959
2814  3 0.0000 110.991118 27.500278 23.583679
2815  3 0.0000 122.853290 30.747192 29.807399
2816  3 0.0000  87.266774 24.779304  4.912520
2817  3 0.0000  99.128946 28.026218 11.136240
2818  3 0.0000 110.991118 31.273132 17.359959
2819  3 0.0000 122.853290 34.520046 23.583679
2820  3 0.0000 134.715462 37.766960 29.807399
2821  3 0.0000  99.128946 31.799072  4.912520
2822  3 0.0000 110.991118 35.045986 11.136240
2823  3 0.0000 122.853291 38.292900 17.359959
2824  3 0.0000 134.715463 41.539813 23.583679
2825  3 0.0000 146.577635 44.786727 29.807399
2826  3 0.0000  65.463879  3.720001  4.912520
2827  3 0.0000  77.326052  6.966915 11.136240
2828  3 0.0000  89.188224 10.213829 17.359959
2829  3 0.0000 101.050396 13.460743 23.583679
2830  3 0.0000 112.912568 16.707657 29.807399
2831  3 0.0000  77.326052 10.739769  4.912520
2832  3 0.0000  89.188224 13.986683 11.136240
2833  3 0.0000 101.050396 17.233597 17.359959
2834  3 0.0000 112.912568 20.480511 23.583679
2835  3 0.0000 124.774741 23.727424 29.807399
2836  3 0.0000  89.188225 17.759536  4.912520
2837  3 0.0000 101.050397 21.006450 11.136240
2838  3 0.0000 112.912569 24.253364 17.359959
2839  3 0.0000 124.774741 27.500278 23.583679
2840  3 0.0000 136.636913 30.747192 29.807399
2841  3 0.0000 101.050397 24.779304  4.912520
2842  3 0.0000 112.912569 28.026218 11.136240
2843  3 0.0000 124.774741 31.273132 17.359959
2844  3 0.0000 136.636914 34.520046 23.583679
2845  3 0.0000 148.499086 37.766960 29.807399
2846  3 0.0000 112.912570 31.799072  4.912520
2847  3 0.0000 124.774742 35.045986 11.136240
2848  3 0.0000 136.636914 38.292900 17.359959
2849  3 0.0000 148.499086 41.539813 23.583679
2850  3 0.0000 160.361258 44.786727 29.807399
2851  3 0.0000  79.247503  3.720001  4.912520
2852  3 0.0000  91.109675  6.966915 11.136240
2853  3 0.0000 102.971847 10.213829 17.359959
2854  3 0.0000 114.834019 13.460743 23.583679
2855  3 0.0000 126.696191 16.707657 29.807399
2856  3 0.0000  91.109675 10.739769  4.912520
2857  3 0.0000 102.971848 13.986683 11.136240
2858  3 0.0000 114.834020 17.233597 17.359959
2859  3 0.0000 126.696192 20.480511 23.583679
2860  3 0.0000 138.558364 23.727424 29.807399
2861  3 0.0000 102.971848 17.759536  4.912520
2862  3 0.0000 114.834020 21.006450 11.136240
2863  3 0.0000 126.696192 24.253364 17.359959
2864  3 0.0000 138.558364 27.500278 23.583679
2865  3 0.0000 150.420537 30.747192 29.807399
2866  3 0.0000 114.834021 24.779304  4.912520
2867  3 0.0000 126.696193 28.026218 11.136240
2868  3 0.0000 138.558365 31.273132 17.359959
2869  3 0.0000 150.420537 34.520046 23.583679
2870  3 0.0000 162.282709 37.766960 29.807399
2871  3 0.0000 126.696193 31.799072  4.912520
2872  3 0.0000 138.558365 35.045986 11.136240
2873  3 0.0000 150.420537 38.292900 17.359959
2874  3 0.0000 162.282710 41.539813 23.583679
2875  3 0.0000 174.144882 44.786727 29.807399
2876  3 0.0000  22.646165  8.554788  5.777132
2877  3 0.0000  34.508338 11.801702 12.000852
2878  3 0.0000  46.370510 15.048616 18.224572
2879  3 0.0000  58.232682 18.295530 24.448291
2880  3 0.0000  70.094854 21.542444 30.672011
2881  3 0.0000  34.508338 15.574556  5.777132
2882  3 0.0000  46.370510 18.821469 12.000852
2883  3 0.0000  58.232682 22.068383 18.224572
2884  3 0.0000  70.094854 25.315297 24.448291
2885  3 0.0000  81.957027 28.562211 30.672011
2886  3 0.0000  46.370511 22.594323  5.777132
2887  3 0.0000  58.232683 25.841237 12.000852
2888  3 0.0000  70.094855 29.088151 18.224572
2889  3 0.0000  81.957027 32.335065 24.448291
2890  3 0.0000  93.819199 35.581979 30.672011
2891  3 0.0000  58.232683 29.614091  5.777132
2892  3 0.0000  70.094855 32.861005 12.000852
2893  3 0.0000  81.957027 36.107919 18.224572
2894  3 0.0000  93.819200 39.354833 24.448291
2895  3 0.0000 105.681372 42.601746 30.672011
2896  3 0.0000  70.094856 36.633858  5.777132
2897  3 0.0000  81.957028 39.880772 12.000852
2898  3 0.0000  93.819200 43.127686 18.224572
2899  3 0.0000 105.681372 46.374600 24.448291
2900  3 0.0000 117.543544 49.621514 30.672011
2901  3 0.0000  36.429789  8.554788  5.777132
2902  3 0.0000  48.291961 11.801702 12.000852
2903  3 0.0000  60.154133 15.048616 18.224572
2904  3 0.0000  72.016305 18.295530 24.448291
2905  3 0.0000  83.878477 21.542444 30.672011
2906  3 0.0000  48.291961 15.574556  5.777132
2907  3 0.0000  60.154134 18.821469 12.000852
2908  3 0.0000  72.016306 22.068383 18.224572
2909  3 0.0000  83.878478 25.315297 24.448291
2910  3 0.0000  95.740650 28.562211 30.672011
2911  3 0.0000  60.154134 22.594323  5.777132
2912  3 0.0000  72.016306 25.841237 12.000852
2913  3 0.0000  83.878478 29.088151 18.224572
2914  3 0.0000  95.740650 32.335065 24.448291
2915  3 0.0000 107.602823 35.581979 30.672011
2916  3 0.0000  72.016307 29.614091  5.777132
2917  3 0.0000  83.878479 32.861005 12.000852
2918  3 0.0000  95.740651 36.107919 18.224572
2919  3 0.0000 107.602823 39.354833 24.448291
2920  3 0.0000 119.464995 42.601746 30.672011
2921  3 0.0000  83.878479 36.633858  5.777132
2922  3 0.0000  95.740651 39.880772 12.000852
2923  3 0.0000 107.602823 43.127686 18.224572
2924  3 0.0000 119.464996 46.374600 24.448291
2925  3 0.0000 131.327168 49.621514 30.672011
2926  3 0.0000  50.213412  8.554788  5.777132
2927  3 0.0000  62.075585 11.801702 12.000852
2928  3 0.0000  73.937757 15.048616 18.224572
2929  3 0.0000  85.799929 18.295530 24.448291
2930  3 0.0000  97.662101 21.542444 30.672011
2931  3 0.0000  62.075585 15.574556  5.777132
2932  3 0.0000  73.937757 18.821469 12.000852
2933  3 0.0000  85.799929 22.068383 18.224572
2934  3 0.0000  97.662101 25.315297 24.448291
2935  3 0.0000 109.524273 28.562211 30.672011
2936  3 0.0000  73.937758 22.594323  5.777132
2937  3 0.0000  85.799930 25.841237 12.000852
2938  3 0.0000  97.662102 29.088151 18.224572
2939  3 0.0000 109.524274 32.335065 24.448291
2940  3 0.0000 121.386446 35.581979 30.672011
2941  3 0.0000  85.799930 29.614091  5.777132
2942  3 0.0000  97.662102 32.861005 12.000852
2943  3 0.0000 109.524274 36.107919 18.224572
2944  3 0.0000 121.386447 39.354833 24.448291
2945  3 0.0000 133.248619 42.601746 30.672011
2946  3 0.0000  97.662103 36.633858  5.777132
2947  3 0.0000 109.524275 39.880772 12.000852
2948  3 0.0000 121.386447 43.127686 18.224572
2949  3 0.0000 133.248619 46.374600 24.448291
2950  3 0.0000 145.110791 49.621514 30.672011
2951  3 0.0000  63.997036  8.554788  5.777132
2952  3 0.0000  75.859208 11.801702 12.000852
2953  3 0.0000  87.721380 15.048616 18.224572
2954  3 0.0000  99.583552 18.295530 24.448291
2955  3 0.0000 111.445724 21.542444 30.672011
2956  3 0.0000  75.859208 15.574556  5.777132
2957  3 0.0000  87.721381 18.821469 12.000852
2958  3 0.0000  99.583553 22.068383 18.224572
2959  3 0.0000 111.445725 25.315297 24.448291
2960  3 0.0000 123.307897 28.562211 30.672011
2961  3 0.0000  87.721381 22.594323  5.777132
2962  3 0.0000  99.583553 25.841237 12.000852
2963  3 0.0000 111.445725 29.088151 18.224572
2964  3 0.0000 123.307897 32.335065 24.448291
2965  3 0.0000 135.170070 35.581979 30.672011
2966  3 0.0000  99.583554 29.614091  5.777132
2967  3 0.0000 111.445726 32.861005 12.000852
2968  3 0.0000 123.307898 36.107919 18.224572
2969  3 0.0000 135.170070 39.354833 24.448291
2970  3 0.0000 147.032242 42.601746 30.672011
2971  3 0.0000 111.445726 36.633858  5.777132
2972  3 0.0000 123.307898 39.880772 12.000852
2973  3 0.0000 135.170070 43.127686 18.224572
2974  3 0.0000 147.032243 46.374600 24.448291
2975  3 0.0000 158.894415 49.621514 30.672011
2976  3 0.0000  77.780659  8.554788  5.777132
2977  3 0.0000  89.642831 11.801702 12.000852
2978  3 0.0000 101.505004 15.048616 18.224572
2979  3 0.0000 113.367176 18.295530 24.448291
2980  3 0.0000 125.229348 21.542444 30.672011
2981  3 0.0000  89.642832 15.574556  5.777132
2982  3 0.0000 101.505004 18.821469 12.000852
2983  3 0.0000 113.367176 22.068383 18.224572
2984  3 0.0000 125.229348 25.315297 24.448291
2985  3 0.0000 137.091520 28.562211 30.672011
2986  3 0.0000 101.505004 22.594323  5.777132
2987  3 0.0000 113.367177 25.841237 12.000852
2988  3 0.0000 125.229349 29.088151 18.224572
2989  3 0.0000 137.091521 32.335065 24.448291
2990  3 0.0000 148.953693 35.581979 30.672011
2991  3 0.0000 113.367177 29.614091  5.777132
2992  3 0.0000 125.229349 32.861005 12.000852
2993  3 0.0000 137.091521 36.107919 18.224572
2994  3 0.0000 148.953693 39.354833 24.448291
2995  3 0.0000 160.815866 42.601746 30.672011
2996  3 0.0000 125.229350 36.633858  5.777132
2997  3 0.0000 137.091522 39.880772 12.000852
2998  3 0.0000 148.953694 43.127686 18.224572
2999  3 0.0000 160.815866 46.374600 24.448291
3000  3 0.0000 172.678038 49.621514 30.672011
3001  3 0.0000  17.221197  4.189654  4.137779
3002  3 0.0000  29.083369  7.436568 10.361499
3003  3 0.0000  40.945542 10.683481 16.585218
3004  3 0.0000  52.807714 13.930395 22.808938
3005  3 0.0000  64.669886 17.177309 29.032658
3006  3 0.0000  29.083370 11.209421  4.137779
3007  3 0.0000  40.945542 14.456335 10.361499
3008  3 0.0000  52.807714 17.703249 16.585218
3009  3 0.0000  64.669886 20.950163 22.808938
3010  3 0.0000  76.532058 24.197077 29.032658
3011  3 0.0000  40.945542 18.229189  4.137779
3012  3 0.0000  52.807715 21.476103 10.361499
3013  3 0.0000  64.669887 24.723017 16.585218
3014  3 0.0000  76.532059 27.969931 22.808938
3015  3 0.0000  88.394231 31.216845 29.032658
3016  3 0.0000  52.807715 25.248957  4.137779
3017  3 0.0000  64.669887 28.495870 10.361499
3018  3 0.0000  76.532059 31.742784 16.585218
3019  3 0.0000  88.394231 34.989698 22.808938
3020  3 0.0000 100.256404 38.236612 29.032658
3021  3 0.0000  64.669888 32.268724  4.137779
3022  3 0.0000  76.532060 35.515638 10.361499
3023  3 0.0000  88.394232 38.762552 16.585218
3024  3 0.0000 100.256404 42.009466 22.808938
3025  3 0.0000 112.118576 45.256380 29.032658
3026  3 0.0000  31.004821  4.189654  4.137779
3027  3 0.0000  42.866993  7.436568 10.361499
3028  3 0.0000  54.729165 10.683481 16.585218
3029  3 0.0000  66.591337 13.930395 22.808938
3030  3 0.0000  78.453509 17.177309 29.032658
3031  3 0.0000  42.866993 11.209421  4.137779
3032  3 0.0000  54.729166 14.456335 10.361499
3033  3 0.0000  66.591338 17.703249 16.585218
3034  3 0.0000  78.453510 20.950163 22.808938
3035  3 0.0000  90.315682 24.197077 29.032658
3036  3 0.0000  54.729166 18.229189  4.137779
3037  3 0.0000  66.591338 21.476103 10.361499
3038  3 0.0000  78.453510 24.723017 16.585218
3039  3 0.0000  90.315682 27.969931 22.808938
3040  3 0.0000 102.177854 31.216845 29.032658
3041  3 0.0000  66.591339 25.248957  4.137779
3042  3 0.0000  78.453511 28.495870 10.361499
3043  3 0.0000  90.315683 31.742784 16.585218
3044  3 0.0000 102.177855 34.989698 22.808938
3045  3 0.0000 114.040027 38.236612 29.032658
3046  3 0.0000  78.453511 32.268724  4.137779
3047  3 0.0000  90.315683 35.515638 10.361499
3048  3 0.0000 102.177855 38.762552 16.585218
3049  3 0.0000 114.040028 42.009466 22.808938
3050  3 0.0000 125.902200 45.256380 29.032658
3051  3 0.0000  44.788444  4.189654  4.137779
3052  3 0.0000  56.650616  7.436568 10.361499
3053  3 0.0000  68.512789 10.683481 16.585218
3054  3 0.0000  80.374961 13.930395 22.808938
3055  3 0.0000  92.237133 17.177309 29.032658
3056  3 0.0000  56.650617 11.209421  4.137779
3057  3 0.0000  68.512789 14.456335 10.361499
3058  3 0.0000  80.374961 17.703249 16.585218
3059  3 0.0000  92.237133 20.950163 22.808938
3060  3 0.0000 104.099305 24.197077 29.032658
3061  3 0.0000  68.512789 18.229189  4.137779
3062  3 0.0000  80.374962 21.476103 10.361499
3063  3 0.0000  92.237134 24.723017 16.585218
3064  3 0.0000 104.099306 27.969931 22.808938
3065  3 0.0000 115.961478 31.216845 29.032658
3066  3 0.0000  80.374962 25.248957  4.137779
3067  3 0.0000  92.237134 28.495870 10.361499
3068  3 0.0000 104.099306 31.742784 16.585218
3069  3 0.0000 115.961478 34.989698 22.808938
3070  3 0.0000 127.823651 38.236612 29.032658
3071  3 0.0000  92.237135 32.268724  4.137779
3072  3 0.0000 104.099307 35.515638 10.361499
3073  3 0.0000 115.961479 38.762552 16.585218
3074  3 0.0000 127.823651 42.009466 22.808938
3075  3 0.0000 139.685823 45.256380 29.032658
3076  3 0.0000  58.572068  4.189654  4.137779
3077  3 0.0000  70.434240  7.436568 10.361499
3078  3 0.0000  82.296412 10.683481 16.585218
3079  3 0.0000  94.158584 13.930395 22.808938
3080  3 0.0000 106.020756 17.177309 29.032658
3081  3 0.0000  70.434240 11.209421  4.137779
3082  3 0.0000  82.296412 14.456335 10.361499
3083  3 0.0000  94.158585 17.703249 16.585218
3084  3 0.0000 106.020757 20.950163 22.808938
3085  3 0.0000 117.882929 24.197077 29.032658
3086  3 0.0000  82.296413 18.229189  4.137779
3087  3 0.0000  94.158585 21.476103 10.361499
3088  3 0.0000 106.020757 24.723017 16.585218
3089  3 0.0000 117.882929 27.969931 22.808938
3090  3 0.0000 129.745101 31.216845 29.032658
3091  3 0.0000  94.158585 25.248957  4.137779
3092  3 0.0000 106.020758 28.495870 10.361499
3093  3 0.0000 117.882930 31.742784 16.585218
3094  3 0.0000 129.745102 34.989698 22.808938
3095  3 0.0000 141.607274 38.236612 29.032658
3096  3 0.0000 106.020758 32.268724  4.137779
3097  3 0.0000 117.882930 35.515638 10.361499
3098  3 0.0000 129.745102 38.762552 16.585218
3099  3 0.0000 141.607274 42.009466 22.808938
3100  3 0.0000 153.469447 45.256380 29.032658
3101  3 0.0000  72.355691  4.189654  4.137779
3102  3 0.0000  84.217863  7.436568 10.361499
3103  3 0.0000  96.080035 10.683481 16.585218
3104  3 0.0000 107.942208 13.930395 22.808938
3105  3 0.0000 119.804380 17.177309 29.032658
3106  3 0.0000  84.217864 11.209421  4.137779
3107  3 0.0000  96.080036 14.456335 10.361499
3108  3 0.0000 107.942208 17.703249 16.585218
3109  3 0.0000 119.804380 20.950163 22.808938
3110  3 0.0000 131.666552 24.197077 29.032658
3111  3 0.0000  96.080036 18.229189  4.137779
3112  3 0.0000 107.942208 21.476103 10.361499
3113  3 0.0000 119.804381 24.723017 16.585218
3114  3 0.0000 131.666553 27.969931 22.808938
3115  3 0.0000 143.528725 31.216845 29.032658
3116  3 0.0000 107.942209 25.248957  4.137779
3117  3 0.0000 119.804381 28.495870 10.361499
3118  3 0.0000 131.666553 31.742784 16.585218
3119  3 0.0000 143.528725 34.989698 22.808938
3120  3 0.0000 155.390897 38.236612 29.032658
3121  3 0.0000 119.804382 32.268724  4.137779
3122  3 0.0000 131.666554 35.515638 10.361499
3123  3 0.0000 143.528726 38.762552 16.585218
3124  3 0.0000 155.390898 42.009466 22.808938
3125  3 0.0000 167.253070 45.256380 29.032658
3126  3 0.0000  16.954265  6.057496  2.665273
3127  3 0.0000  28.816438  9.304410  8.888992
3128  3 0.0000  40.678610 12.551324 15.112712
3129  3 0.0000  52.540782 15.798238 21.336431
3130  3 0.0000  64.402954 19.045152 27.560151
3131  3 0.0000  28.816438 13.077264  2.665273
3132  3 0.0000  40.678610 16.324178  8.888992
3133  3 0.0000  52.540782 19.571092 15.112712
3134  3 0.0000  64.402954 22.818005 21.336431
3135  3 0.0000  76.265127 26.064919 27.560151
3136  3 0.0000  40.678611 20.097031  2.665273
3137  3 0.0000  52.540783 23.343945  8.888992
3138  3 0.0000  64.402955 26.590859 15.112712
3139  3 0.0000  76.265127 29.837773 21.336431
3140  3 0.0000  88.127299 33.084687 27.560151
3141  3 0.0000  52.540783 27.116799  2.665273
3142  3 0.0000  64.402955 30.363713  8.888992
3143  3 0.0000  76.265127 33.610627 15.112712
3144  3 0.0000  88.127300 36.857541 21.336431
3145  3 0.0000  99.989472 40.104455 27.560151
3146  3 0.0000  64.402956 34.136567  2.665273
3147  3 0.0000  76.265128 37.383481  8.888992
3148  3 0.0000  88.127300 40.630394 15.112712
3149  3 0.0000  99.989472 43.877308 21.336431
3150  3 0.0000 111.851644 47.124222 27.560151
3151  3 0.0000  30.737889  6.057496  2.665273
3152  3 0.0000  42.600061  9.304410  8.888992
3153  3 0.0000  54.462233 12.551324 15.112712
3154  3 0.0000  66.324405 15.798238 21.336431
3155  3 0.0000  78.186577 19.045152 27.560151
3156  3 0.0000  42.600062 13.077264  2.665273
3157  3 0.0000  54.462234 16.324178  8.888992
3158  3 0.0000  66.324406 19.571092 15.112712
3159  3 0.0000  78.186578 22.818005 21.336431
3160  3 0.0000  90.048750 26.064919 27.560151
3161  3 0.0000  54.462234 20.097031  2.665273
3162  3 0.0000  66.324406 23.343945  8.888992
3163  3 0.0000  78.186578 26.590859 15.112712
3164  3 0.0000  90.048750 29.837773 21.336431
3165  3 0.0000 101.910923 33.084687 27.560151
3166  3 0.0000  66.324407 27.116799  2.665273
3167  3 0.0000  78.186579 30.363713  8.888992
3168  3 0.0000  90.048751 33.610627 15.112712
3169  3 0.0000 101.910923 36.857541 21.336431
3170  3 0.0000 113.773095 40.104455 27.560151
3171  3 0.0000  78.186579 34.136567  2.665273
3172  3 0.0000  90.048751 37.383481  8.888992
3173  3 0.0000 101.910924 40.630394 15.112712
3174  3 0.0000 113.773096 43.877308 21.336431
3175  3 0.0000 125.635268 47.124222 27.560151
3176  3 0.0000  44.521512  6.057496  2.665273
3177  3 0.0000  56.383685  9.304410  8.888992
3178  3 0.0000  68.245857 12.551324 15.112712
3179  3 0.0000  80.108029 15.798238 21.336431
3180  3 0.0000  91.970201 19.045152 27.560151
3181  3 0.0000  56.383685 13.077264  2.665273
3182  3 0.0000  68.245857 16.324178  8.888992
3183  3 0.0000  80.108029 19.571092 15.112712
3184  3 0.0000  91.970201 22.818005 21.336431
3185  3 0.0000 103.832374 26.064919 27.560151
3186  3 0.0000  68.245858 20.097031  2.665273
3187  3 0.0000  80.108030 23.343945  8.888992
3188  3 0.0000  91.970202 26.590859 15.112712
3189  3 0.0000 103.832374 29.837773 21.336431
3190  3 0.0000 115.694546 33.084687 27.560151
3191  3 0.0000  80.108030 27.116799  2.665273
3192  3 0.0000  91.970202 30.363713  8.888992
3193  3 0.0000 103.832374 33.610627 15.112712
3194  3 0.0000 115.694547 36.857541 21.336431
3195  3 0.0000 127.556719 40.104455 27.560151
3196  3 0.0000  91.970203 34.136567  2.665273
3197  3 0.0000 103.832375 37.383481  8.888992
3198  3 0.0000 115.694547 40.630394 15.112712
3199  3 0.0000 127.556719 43.877308 21.336431
3200  3 0.0000 139.418891 47.124222 27.560151
3201  3 0.0000  58.305136  6.057496  2.665273
3202  3 0.0000  70.167308  9.304410  8.888992
3203  3 0.0000  82.029480 12.551324 15.112712
3204  3 0.0000  93.891652 15.798238 21.336431
3205  3 0.0000 105.753824 19.045152 27.560151
3206  3 0.0000  70.167308 13.077264  2.665273
3207  3 0.0000  82.029481 16.324178  8.888992
3208  3 0.0000  93.891653 19.571092 15.112712
3209  3 0.0000 105.753825 22.818005 21.336431
3210  3 0.0000 117.615997 26.064919 27.560151
3211  3 0.0000  82.029481 20.097031  2.665273
3212  3 0.0000  93.891653 23.343945  8.888992
3213  3 0.0000 105.753825 26.590859 15.112712
3214  3 0.0000 117.615997 29.837773 21.336431
3215  3 0.0000 129.478170 33.084687 27.560151
3216  3 0.0000  93.891654 27.116799  2.665273
3217  3 0.0000 105.753826 30.363713  8.888992
3218  3 0.0000 117.615998 33.610627 15.112712
3219  3 0.0000 129.478170 36.857541 21.336431
3220  3 0.0000 141.340342 40.104455 27.560151
3221  3 0.0000 105.753826 34.136567  2.665273
3222  3 0.0000 117.615998 37.383481  8.888992
3223  3 0.0000 129.478170 40.630394 15.112712
3224  3 0.0000 141.340343 43.877308 21.336431
3225  3 0.0000 153.202515 47.124222 27.560151
3226  3 0.0000  72.088759  6.057496  2.665273
3227  3 0.0000  83.950931  9.304410  8.888992
3228  3 0.0000  95.813104 12.551324 15.112712
3229  3 0.0000 107.675276 15.798238 21.336431
3230  3 0.0000 119.537448 19.045152 27.560151
3231  3 0.0000  83.950932 13.077264  2.665273
3232  3 0.0000  95.813104 16.324178  8.888992
3233  3 0.0000 107.675276 19.571092 15.112712
3234  3 0.0000 119.537448 22.818005 21.336431
3235  3 0.0000 131.399620 26.064919 27.560151
3236  3 0.0000  95.813104 20.097031  2.665273
3237  3 0.0000 107.675277 23.343945  8.888992
3238  3 0.0000 119.537449 26.590859 15.112712
3239  3 0.0000 131.399621 29.837773 21.336431
3240  3 0.0000 143.261793 33.084687 27.560151
3241  3 0.0000 107.675277 27.116799  2.665273
3242  3 0.0000 119.537449 30.363713  8.888992
3243  3 0.0000 131.399621 33.610627 15.112712
3244  3 0.0000 143.261793 36.857541 21.336431
3245  3 0.0000 155.123966 40.104455 27.560151
3246  3 0.0000 119.537450 34.136567  2.665273
3247  3 0.0000 131.399622 37.383481  8.888992
3248  3 0.0000 143.261794 40.630394 15.112712
3249  3 0.0000 155.123966 43.877308 21.336431
3250  3 0.0000 166.986138 47.124222 27.560151
3251  3 0.0000  17.675805  3.945580  1.800660
3252  3 0.0000  29.537977  7.192494  8.024380
3253  3 0.0000  41.400149 10.439408 14.248100
3254  3 0.0000  53.262321 13.686322 20.471819
3255  3 0.0000  65.124493 16.933236 26.695539
3256  3 0.0000  29.537977 10.965348  1.800660
3257  3 0.0000  41.400150 14.212261  8.024380
3258  3 0.0000  53.262322 17.459175 14.248100
3259  3 0.0000  65.124494 20.706089 20.471819
3260  3 0.0000  76.986666 23.953003 26.695539
3261  3 0.0000  41.400150 17.985115  1.800660
3262  3 0.0000  53.262322 21.232029  8.024380
3263  3 0.0000  65.124494 24.478943 14.248100
3264  3 0.0000  76.986666 27.725857 20.471819
3265  3 0.0000  88.848839 30.972771 26.695539
3266  3 0.0000  53.262323 25.004883  1.800660
3267  3 0.0000  65.124495 28.251797  8.024380
3268  3 0.0000  76.986667 31.498711 14.248100
3269  3 0.0000  88.848839 34.745625 20.471819
3270  3 0.0000 100.711011 37.992538 26.695539
3271  3 0.0000  65.124495 32.024650  1.800660
3272  3 0.0000  76.986667 35.271564  8.024380
3273  3 0.0000  88.848839 38.518478 14.248100
3274  3 0.0000 100.711012 41.765392 20.471819
3275  3 0.0000 112.573184 45.012306 26.695539
3276  3 0.0000  31.459428  3.945580  1.800660
3277  3 0.0000  43.321600  7.192494  8.024380
3278  3 0.0000  55.183773 10.439408 14.248100
3279  3 0.0000  67.045945 13.686322 20.471819
3280  3 0.0000  78.908117 16.933236 26.695539
3281  3 0.0000  43.321601 10.965348  1.800660
3282  3 0.0000  55.183773 14.212261  8.024380
3283  3 0.0000  67.045945 17.459175 14.248100
3284  3 0.0000  78.908117 20.706089 20.471819
3285  3 0.0000  90.770289 23.953003 26.695539
3286  3 0.0000  55.183774 17.985115  1.800660
3287  3 0.0000  67.045946 21.232029  8.024380
3288  3 0.0000  78.908118 24.478943 14.248100
3289  3 0.0000  90.770290 27.725857 20.471819
3290  3 0.0000 102.632462 30.972771 26.695539
3291  3 0.0000  67.045946 25.004883  1.800660
3292  3 0.0000  78.908118 28.251797  8.024380
3293  3 0.0000  90.770290 31.498711 14.248100
3294  3 0.0000 102.632462 34.745625 20.471819
3295  3 0.0000 114.494635 37.992538 26.695539
3296  3 0.0000  78.908119 32.024650  1.800660
3297  3 0.0000  90.770291 35.271564  8.024380
3298  3 0.0000 102.632463 38.518478 14.248100
3299  3 0.0000 114.494635 41.765392 20.471819
3300  3 0.0000 126.356807 45.012306 26.695539
3301  3 0.0000  45.243052  3.945580  1.800660
3302  3 0.0000  57.105224  7.192494  8.024380
3303  3 0.0000  68.967396 10.439408 14.248100
3304  3 0.0000  80.829568 13.686322 20.471819
3305  3 0.0000  92.691740 16.933236 26.695539
3306  3 0.0000  57.105224 10.965348  1.800660
3307  3 0.0000  68.967397 14.212261  8.024380
3308  3 0.0000  80.829569 17.459175 14.248100
3309  3 0.0000  92.691741 20.706089 20.471819
3310  3 0.0000 104.553913 23.953003 26.695539
3311  3 0.0000  68.967397 17.985115  1.800660
3312  3 0.0000  80.829569 21.232029  8.024380
3313  3 0.0000  92.691741 24.478943 14.248100
3314  3 0.0000 104.553913 27.725857 20.471819
3315  3 0.0000 116.416086 30.972771 26.695539
3316  3 0.0000  80.829570 25.004883  1.800660
3317  3 0.0000  92.691742 28.251797  8.024380
3318  3 0.0000 104.553914 31.498711 14.248100
3319  3 0.0000 116.416086 34.745625 20.471819
3320  3 0.0000 128.278258 37.992538 26.695539
3321  3 0.0000  92.691742 32.024650  1.800660
3322  3 0.0000 104.553914 35.271564  8.024380
3323  3 0.0000 116.416086 38.518478 14.248100
3324  3 0.0000 128.278259 41.765392 20.471819
3325  3 0.0000 140.140431 45.012306 26.695539
3326  3 0.0000  59.026675  3.945580  1.800660
3327  3 0.0000  70.888847  7.192494  8.024380
3328  3 0.0000  82.751020 10.439408 14.248100
3329  3 0.0000  94.613192 13.686322 20.471819
3330  3 0.0000 106.475364 16.933236 26.695539
3331  3 0.0000  70.888848 10.965348  1.800660
3332  3 0.0000  82.751020 14.212261  8.024380
3333  3 0.0000  94.613192 17.459175 14.248100
3334  3 0.0000 106.475364 20.706089 20.471819
3335  3 0.0000 118.337536 23.953003 26.695539
3336  3 0.0000  82.751020 17.985115  1.800660
3337  3 0.0000  94.613193 21.232029  8.024380
3338  3 0.0000 106.475365 24.478943 14.248100
3339  3 0.0000 118.337537 27.725857 20.471819
3340  3 0.0000 130.199709 30.972771 26.695539
3341  3 0.0000  94.613193 25.004883  1.800660
3342  3 0.0000 106.475365 28.251797  8.024380
3343  3 0.0000 118.337537 31.498711 14.248100
3344  3 0.0000 130.199709 34.745625 20.471819
3345  3 0.0000 142.061882 37.992538 26.695539
3346  3 0.0000 106.475366 32.024650  1.800660
3347  3 0.0000 118.337538 35.271564  8.024380
3348  3 0.0000 130.199710 38.518478 14.248100
3349  3 0.0000 142.061882 41.765392 20.471819
3350  3 0.0000 153.924054 45.012306 26.695539
3351  3 0.0000  72.810299  3.945580  1.800660
3352  3 0.0000  84.672471  7.192494  8.024380
3353  3 0.0000  96.534643 10.439408 14.248100
3354  3 0.0000 108.396815 13.686322 20.471819
3355  3 0.0000 120.258987 16.933236 26.695539
3356  3 0.0000  84.672471 10.965348  1.800660
3357  3 0.0000  96.534643 14.212261  8.024380
3358  3 0.0000 108.396816 17.459175 14.248100
3359  3 0.0000 120.258988 20.706089 20.471819
3360  3 0.0000 132.121160 23.953003 26.695539
3361  3 0.0000  96.534644 17.985115  1.800660
3362  3 0.0000 108.396816 21.232029  8.024380
3363  3 0.0000 120.258988 24.478943 14.248100
3364  3 0.0000 132.121160 27.725857 20.471819
3365  3 0.0000 143.983332 30.972771 26.695539
3366  3 0.0000 108.396816 25.004883  1.800660
3367  3 0.0000 120.258989 28.251797  8.024380
3368  3 0.0000 132.121161 31.498711 14.248100
3369  3 0.0000 143.983333 34.745625 20.471819
3370  3 0.0000 155.845505 37.992538 26.695539
3371  3 0.0000 120.258989 32.024650  1.800660
3372  3 0.0000 132.121161 35.271564  8.024380
3373  3 0.0000 143.983333 38.518478 14.248100
3374  3 0.0000 155.845505 41.765392 20.471819
3375  3 0.0000 167.707678 45.012306 26.695539
3376  3 0.0000  13.661891  3.215400  5.197800
3377  3 0.0000  25.524063  6.462314 11.421520
3378  3 0.0000  37.386235  9.709228 17.645240
3379  3 0.0000  49.248407 12.956142 23.868959
3380  3 0.0000  61.110579 16.203056 30.092679
3381  3 0.0000  25.524063 10.235168  5.197800
3382  3 0.0000  37.386236 13.482082 11.421520
3383  3 0.0000  49.248408 16.728996 17.645240
3384  3 0.0000  61.110580 19.975910 23.868959
3385  3 0.0000  72.972752 23.222824 30.092679
3386  3 0.0000  37.386236 17.254936  5.197800
3387  3 0.0000  49.248408 20.501849 11.421520
3388  3 0.0000  61.110580 23.748763 17.645240
3389  3 0.0000  72.972752 26.995677 23.868959
3390  3 0.0000  84.834925 30.242591 30.092679
3391  3 0.0000  49.248409 24.274703  5.197800
3392  3 0.0000  61.110581 27.521617 11.421520
3393  3 0.0000  72.972753 30.768531 17.645240
3394  3 0.0000  84.834925 34.015445 23.868959
3395  3 0.0000  96.697097 37.262359 30.092679
3396  3 0.0000  61.110581 31.294471  5.197800
3397  3 0.0000  72.972753 34.541385 11.421520
3398  3 0.0000  84.834925 37.788299 17.645240
3399  3 0.0000  96.697098 41.035213 23.868959
3400  3 0.0000 108.559270 44.282126 30.092679
3401  3 0.0000  27.445514  3.215400  5.197800
3402  3 0.0000  39.307686  6.462314 11.421520
3403  3 0.0000  51.169859  9.709228 17.645240
3404  3 0.0000  63.032031 12.956142 23.868959
3405  3 0.0000  74.894203 16.203056 30.092679
3406  3 0.0000  39.307687 10.235168  5.197800
3407  3 0.0000  51.169859 13.482082 11.421520
3408  3 0.0000  63.032031 16.728996 17.645240
3409  3 0.0000  74.894203 19.975910 23.868959
3410  3 0.0000  86.756375 23.222824 30.092679
3411  3 0.0000  51.169860 17.254936  5.197800
3412  3 0.0000  63.032032 20.501849 11.421520
3413  3 0.0000  74.894204 23.748763 17.645240
3414  3 0.0000  86.756376 26.995677 23.868959
3415  3 0.0000  98.618548 30.242591 30.092679
3416  3 0.0000  63.032032 24.274703  5.197800
3417  3 0.0000  74.894204 27.521617 11.421520
3418  3 0.0000  86.756376 30.768531 17.645240
3419  3 0.0000  98.618548 34.015445 23.868959
3420  3 0.0000 110.480721 37.262359 30.092679
3421  3 0.0000  74.894205 31.294471  5.197800
3422  3 0.0000  86.756377 34.541385 11.421520
3423  3 0.0000  98.618549 37.788299 17.645240
3424  3 0.0000 110.480721 41.035213 23.868959
3425  3 0.0000 122.342893 44.282126 30.092679
3426  3 0.0000  41.229138  3.215400  5.197800
3427  3 0.0000  53.091310  6.462314 11.421520
3428  3 0.0000  64.953482  9.709228 17.645240
3429  3 0.0000  76.815654 12.956142 23.868959
3430  3 0.0000  88.677826 16.203056 30.092679
3431  3 0.0000  53.091310 10.235168  5.197800
3432  3 0.0000  64.953483 13.482082 11.421520
3433  3 0.0000  76.815655 16.728996 17.645240
3434  3 0.0000  88.677827 19.975910 23.868959
3435  3 0.0000 100.539999 23.222824 30.092679
3436  3 0.0000  64.953483 17.254936  5.197800
3437  3 0.0000  76.815655 20.501849 11.421520
3438  3 0.0000  88.677827 23.748763 17.645240
3439  3 0.0000 100.539999 26.995677 23.868959
3440  3 0.0000 112.402172 30.242591 30.092679
3441  3 0.0000  76.815656 24.274703  5.197800
3442  3 0.0000  88.677828 27.521617 11.421520
3443  3 0.0000 100.540000 30.768531 17.645240
3444  3 0.0000 112.402172 34.015445 23.868959
3445  3 0.0000 124.264344 37.262359 30.092679
3446  3 0.0000  88.677828 31.294471  5.197800
3447  3 0.0000 100.540000 34.541385 11.421520
3448  3 0.0000 112.402172 37.788299 17.645240
3449  3 0.0000 124.264345 41.035213 23.868959
3450  3 0.0000 136.126517 44.282126 30.092679
3451  3 0.0000  55.012761  3.215400  5.197800
3452  3 0.0000  66.874933  6.462314 11.421520
3453  3 0.0000  78.737106  9.709228 17.645240
3454  3 0.0000  90.599278 12.956142 23.868959
3455  3 0.0000 102.461450 16.203056 30.092679
3456  3 0.0000  66.874934 10.235168  5.197800
3457  3 0.0000  78.737106 13.482082 11.421520
3458  3 0.0000  90.599278 16.728996 17.645240
3459  3 0.0000 102.461450 19.975910 23.868959
3460  3 0.0000 114.323622 23.222824 30.092679
3461  3 0.0000  78.737106 17.254936  5.197800
3462  3 0.0000  90.599279 20.501849 11.421520
3463  3 0.0000 102.461451 23.748763 17.645240
3464  3 0.0000 114.323623 26.995677 23.868959
3465  3 0.0000 126.185795 30.242591 30.092679
3466  3 0.0000  90.599279 24.274703  5.197800
3467  3 0.0000 102.461451 27.521617 11.421520
3468  3 0.0000 114.323623 30.768531 17.645240
3469  3 0.0000 126.185795 34.015445 23.868959
3470  3 0.0000 138.047968 37.262359 30.092679
3471  3 0.0000 102.461452 31.294471  5.197800
3472  3 0.0000 114.323624 34.541385 11.421520
3473  3 0.0000 126.185796 37.788299 17.645240
3474  3 0.0000 138.047968 41.035213 23.868959
3475  3 0.0000 149.910140 44.282126 30.092679
3476  3 0.0000  68.796385  3.215400  5.197800
3477  3 0.0000  80.658557  6.462314 11.421520
3478  3 0.0000  92.520729  9.709228 17.645240
3479  3 0.0000 104.382901 12.956142 23.868959
3480  3 0.0000 116.245073 16.203056 30.092679
3481  3 0.0000  80.658557 10.235168  5.197800
3482  3 0.0000  92.520729 13.482082 11.421520
3483  3 0.0000 104.382902 16.728996 17.645240
3484  3 0.0000 116.245074 19.975910 23.868959
3485  3 0.0000 128.107246 23.222824 30.092679
3486  3 0.0000  92.520730 17.254936  5.197800
3487  3 0.0000 104.382902 20.501849 11.421520
3488  3 0.0000 116.245074 23.748763 17.645240
3489  3 0.0000 128.107246 26.995677 23.868959
3490  3 0.0000 139.969418 30.242591 30.092679
3491  3 0.0000 104.382903 24.274703  5.197800
3492  3 0.0000 116.245075 27.521617 11.421520
3493  3 0.0000 128.107247 30.768531 17.645240
3494  3 0.0000 139.969419 34.015445 23.868959
3495  3 0.0000 151.831591 37.262359 30.092679
3496  3 0.0000 116.245075 31.294471  5.197800
3497  3 0.0000 128.107247 34.541385 11.421520
3498  3 0.0000 139.969419 37.788299 17.645240
3499  3 0.0000 151.831591 41.035213 23.868959
3500  3 0.0000 163.693764 44.282126 30.092679
3501  3 0.0000  13.394959  6.546680  1.311199
3502  3 0.0000  25.257131  9.793594  7.534919
3503  3 0.0000  37.119303 13.040508 13.758639
3504  3 0.0000  48.981476 16.287422 19.982358
3505  3 0.0000  60.843648 19.534336 26.206078
3506  3 0.0000  25.257132 13.566448  1.311199
3507  3 0.0000  37.119304 16.813362  7.534919
3508  3 0.0000  48.981476 20.060276 13.758639
3509  3 0.0000  60.843648 23.307190 19.982358
3510  3 0.0000  72.705820 26.554104 26.206078
3511  3 0.0000  37.119304 20.586216  1.311199
3512  3 0.0000  48.981476 23.833130  7.534919
3513  3 0.0000  60.843649 27.080043 13.758639
3514  3 0.0000  72.705821 30.326957 19.982358
3515  3 0.0000  84.567993 33.573871 26.206078
3516  3 0.0000  48.981477 27.605983  1.311199
3517  3 0.0000  60.843649 30.852897  7.534919
3518  3 0.0000  72.705821 34.099811 13.758639
3519  3 0.0000  84.567993 37.346725 19.982358
3520  3 0.0000  96.430165 40.593639 26.206078
3521  3 0.0000  60.843650 34.625751  1.311199
3522  3 0.0000  72.705822 37.872665  7.534919
3523  3 0.0000  84.567994 41.119579 13.758639
3524  3 0.0000  96.430166 44.366493 19.982358
3525  3 0.0000 108.292338 47.613407 26.206078
3526  3 0.0000  27.178583  6.546680  1.311199
3527  3 0.0000  39.040755  9.793594  7.534919
3528  3 0.0000  50.902927 13.040508 13.758639
3529  3 0.0000  62.765099 16.287422 19.982358
3530  3 0.0000  74.627271 19.534336 26.206078
3531  3 0.0000  39.040755 13.566448  1.311199
3532  3 0.0000  50.902927 16.813362  7.534919
3533  3 0.0000  62.765100 20.060276 13.758639
3534  3 0.0000  74.627272 23.307190 19.982358
3535  3 0.0000  86.489444 26.554104 26.206078
3536  3 0.0000  50.902928 20.586216  1.311199
3537  3 0.0000  62.765100 23.833130  7.534919
3538  3 0.0000  74.627272 27.080043 13.758639
3539  3 0.0000  86.489444 30.326957 19.982358
3540  3 0.0000  98.351616 33.573871 26.206078
3541  3 0.0000  62.765100 27.605983  1.311199
3542  3 0.0000  74.627273 30.852897  7.534919
3543  3 0.0000  86.489445 34.099811 13.758639
3544  3 0.0000  98.351617 37.346725 19.982358
3545  3 0.0000 110.213789 40.593639 26.206078
3546  3 0.0000  74.627273 34.625751  1.311199
3547  3 0.0000  86.489445 37.872665  7.534919
3548  3 0.0000  98.351617 41.119579 13.758639
3549  3 0.0000 110.213789 44.366493 19.982358
3550  3 0.0000 122.075962 47.613407 26.206078
3551  3 0.0000  40.962206  6.546680  1.311199
3552  3 0.0000  52.824378  9.793594  7.534919
3553  3 0.0000  64.686550 13.040508 13.758639
3554  3 0.0000  76.548723 16.287422 19.982358
3555  3 0.0000  88.410895 19.534336 26.206078
3556  3 0.0000  52.824379 13.566448  1.311199
3557  3 0.0000  64.686551 16.813362  7.534919
3558  3 0.0000  76.548723 20.060276 13.758639
3559  3 0.0000  88.410895 23.307190 19.982358
3560  3 0.0000 100.273067 26.554104 26.206078
3561  3 0.0000  64.686551 20.586216  1.311199
3562  3 0.0000  76.548723 23.833130  7.534919
3563  3 0.0000  88.410896 27.080043 13.758639
3564  3 0.0000 100.273068 30.326957 19.982358
3565  3 0.0000 112.135240 33.573871 26.206078
3566  3 0.0000  76.548724 27.605983  1.311199
3567  3 0.0000  88.410896 30.852897  7.534919
3568  3 0.0000 100.273068 34.099811 13.758639
3569  3 0.0000 112.135240 37.346725 19.982358
3570  3 0.0000 123.997412 40.593639 26.206078
3571  3 0.0000  88.410896 34.625751  1.311199
3572  3 0.0000 100.273069 37.872665  7.534919
3573  3 0.0000 112.135241 41.119579 13.758639
3574  3 0.0000 123.997413 44.366493 19.982358
3575  3 0.0000 135.859585 47.613407 26.206078
3576  3 0.0000  54.745830  6.546680  1.311199
3577  3 0.0000  66.608002  9.793594  7.534919
3578  3 0.0000  78.470174 13.040508 13.758639
3579  3 0.0000  90.332346 16.287422 19.982358
3580  3 0.0000 102.194518 19.534336 26.206078
3581  3 0.0000  66.608002 13.566448  1.311199
3582  3 0.0000  78.470174 16.813362  7.534919
3583  3 0.0000  90.332346 20.060276 13.758639
3584  3 0.0000 102.194519 23.307190 19.982358
3585  3 0.0000 114.056691 26.554104 26.206078
3586  3 0.0000  78.470175 20.586216  1.311199
3587  3 0.0000  90.332347 23.833130  7.534919
3588  3 0.0000 102.194519 27.080043 13.758639
3589  3 0.0000 114.056691 30.326957 19.982358
3590  3 0.0000 125.918863 33.573871 26.206078
3591  3 0.0000  90.332347 27.605983  1.311199
3592  3 0.0000 102.194519 30.852897  7.534919
3593  3 0.0000 114.056692 34.099811 13.758639
3594  3 0.0000 125.918864 37.346725 19.982358
3595  3 0.0000 137.781036 40.593639 26.206078
3596  3 0.0000 102.194520 34.625751  1.311199
3597  3 0.0000 114.056692 37.872665  7.534919
3598  3 0.0000 125.918864 41.119579 13.758639
3599  3 0.0000 137.781036 44.366493 19.982358
3600  3 0.0000 149.643208 47.613407 26.206078
3601  3 0.0000  68.529453  6.546680  1.311199
3602  3 0.0000  80.391625  9.793594  7.534919
3603  3 0.0000  92.253797 13.040508 13.758639
3604  3 0.0000 104.115969 16.287422 19.982358
3605  3 0.0000 115.978142 19.534336 26.206078
3606  3 0.0000  80.391626 13.566448  1.311199
3607  3 0.0000  92.253798 16.813362  7.534919
3608  3 0.0000 104.115970 20.060276 13.758639
3609  3 0.0000 115.978142 23.307190 19.982358
3610  3 0.0000 127.840314 26.554104 26.206078
3611  3 0.0000  92.253798 20.586216  1.311199
3612  3 0.0000 104.115970 23.833130  7.534919
3613  3 0.0000 115.978142 27.080043 13.758639
3614  3 0.0000 127.840315 30.326957 19.982358
3615  3 0.0000 139.702487 33.573871 26.206078
3616  3 0.0000 104.115971 27.605983  1.311199
3617  3 0.0000 115.978143 30.852897  7.534919
3618  3 0.0000 127.840315 34.099811 13.758639
3619  3 0.0000 139.702487 37.346725 19.982358
3620  3 0.0000 151.564659 40.593639 26.206078
3621  3 0.0000 115.978143 34.625751  1.311199
3622  3 0.0000 127.840316 37.872665  7.534919
3623  3 0.0000 139.702488 41.119579 13.758639
3624  3 0.0000 151.564660 44.366493 19.982358
3625  3 0.0000 163.426832 47.613407 26.206078
3626  3 0.0000  14.861803  1.711894  0.446587
3627  3 0.0000  26.723975  4.958808  6.670307
3628  3 0.0000  38.586147  8.205721 12.894027
3629  3 0.0000  50.448319 11.452635 19.117746
3630  3 0.0000  62.310491 14.699549 25.341466
3631  3 0.0000  26.723975  8.731661  0.446587
3632  3 0.0000  38.586147 11.978575  6.670307
3633  3 0.0000  50.448320 15.225489 12.894027
3634  3 0.0000  62.310492 18.472403 19.117746
3635  3 0.0000  74.172664 21.719317 25.341466
3636  3 0.0000  38.586148 15.751429  0.446587
3637  3 0.0000  50.448320 18.998343  6.670307
3638  3 0.0000  62.310492 22.245257 12.894027
3639  3 0.0000  74.172664 25.492171 19.117746
3640  3 0.0000  86.034836 28.739085 25.341466
3641  3 0.0000  50.448320 22.771197  0.446587
3642  3 0.0000  62.310493 26.018110  6.670307
3643  3 0.0000  74.172665 29.265024 12.894027
3644  3 0.0000  86.034837 32.511938 19.117746
3645  3 0.0000  97.897009 35.758852 25.341466
3646  3 0.0000  62.310493 29.790964  0.446587
3647  3 0.0000  74.172665 33.037878  6.670307
3648  3 0.0000  86.034837 36.284792 12.894027
3649  3 0.0000  97.897009 39.531706 19.117746
3650  3 0.0000 109.759182 42.778620 25.341466
3651  3 0.0000  28.645426  1.711894  0.446587
3652  3 0.0000  40.507598  4.958808  6.670307
3653  3 0.0000  52.369770  8.205721 12.894027
3654  3 0.0000  64.231943 11.452635 19.117746
3655  3 0.0000  76.094115 14.699549 25.341466
3656  3 0.0000  40.507599  8.731661  0.446587
3657  3 0.0000  52.369771 11.978575  6.670307
3658  3 0.0000  64.231943 15.225489 12.894027
3659  3 0.0000  76.094115 18.472403 19.117746
3660  3 0.0000  87.956287 21.719317 25.341466
3661  3 0.0000  52.369771 15.751429  0.446587
3662  3 0.0000  64.231944 18.998343  6.670307
3663  3 0.0000  76.094116 22.245257 12.894027
3664  3 0.0000  87.956288 25.492171 19.117746
3665  3 0.0000  99.818460 28.739085 25.341466
3666  3 0.0000  64.231944 22.771197  0.446587
3667  3 0.0000  76.094116 26.018110  6.670307
3668  3 0.0000  87.956288 29.265024 12.894027
3669  3 0.0000  99.818460 32.511938 19.117746
3670  3 0.0000 111.680633 35.758852 25.341466
3671  3 0.0000  76.094117 29.790964  0.446587
3672  3 0.0000  87.956289 33.037878  6.670307
3673  3 0.0000  99.818461 36.284792 12.894027
3674  3 0.0000 111.680633 39.531706 19.117746
3675  3 0.0000 123.542805 42.778620 25.341466
3676  3 0.0000  42.429050  1.711894  0.446587
3677  3 0.0000  54.291222  4.958808  6.670307
3678  3 0.0000  66.153394  8.205721 12.894027
3679  3 0.0000  78.015566 11.452635 19.117746
3680  3 0.0000  89.877738 14.699549 25.341466
3681  3 0.0000  54.291222  8.731661  0.446587
3682  3 0.0000  66.153394 11.978575  6.670307
3683  3 0.0000  78.015567 15.225489 12.894027
3684  3 0.0000  89.877739 18.472403 19.117746
3685  3 0.0000 101.739911 21.719317 25.341466
3686  3 0.0000  66.153395 15.751429  0.446587
3687  3 0.0000  78.015567 18.998343  6.670307
3688  3 0.0000  89.877739 22.245257 12.894027
3689  3 0.0000 101.739911 25.492171 19.117746
3690  3 0.0000 113.602083 28.739085 25.341466
3691  3 0.0000  78.015567 22.771197  0.446587
3692  3 0.0000  89.877740 26.018110  6.670307
3693  3 0.0000 101.739912 29.265024 12.894027
3694  3 0.0000 113.602084 32.511938 19.117746
3695  3 0.0000 125.464256 35.758852 25.341466
3696  3 0.0000  89.877740 29.790964  0.446587
3697  3 0.0000 101.739912 33.037878  6.670307
3698  3 0.0000 113.602084 36.284792 12.894027
3699  3 0.0000 125.464256 39.531706 19.117746
3700  3 0.0000 137.326429 42.778620 25.341466
3701  3 0.0000  56.212673  1.711894  0.446587
3702  3 0.0000  68.074845  4.958808  6.670307
3703  3 0.0000  79.937017  8.205721 12.894027
3704  3 0.0000  91.799190 11.452635 19.117746
3705  3 0.0000 103.661362 14.699549 25.341466
3706  3 0.0000  68.074846  8.731661  0.446587
3707  3 0.0000  79.937018 11.978575  6.670307
3708  3 0.0000  91.799190 15.225489 12.894027
3709  3 0.0000 103.661362 18.472403 19.117746
3710  3 0.0000 115.523534 21.719317 25.341466
3711  3 0.0000  79.937018 15.751429  0.446587
3712  3 0.0000  91.799190 18.998343  6.670307
3713  3 0.0000 103.661363 22.245257 12.894027
3714  3 0.0000 115.523535 25.492171 19.117746
3715  3 0.0000 127.385707 28.739085 25.341466
3716  3 0.0000  91.799191 22.771197  0.446587
3717  3 0.0000 103.661363 26.018110  6.670307
3718  3 0.0000 115.523535 29.265024 12.894027
3719  3 0.0000 127.385707 32.511938 19.117746
3720  3 0.0000 139.247879 35.758852 25.341466
3721  3 0.0000 103.661363 29.790964  0.446587
3722  3 0.0000 115.523536 33.037878  6.670307
3723  3 0.0000 127.385708 36.284792 12.894027
3724  3 0.0000 139.247880 39.531706 19.117746
3725  3 0.0000 151.110052 42.778620 25.341466
3726  3 0.0000  69.996297  1.711894  0.446587
3727  3 0.0000  81.858469  4.958808  6.670307
3728  3 0.0000  93.720641  8.205721 12.894027
3729  3 0.0000 105.582813 11.452635 19.117746
3730  3 0.0000 117.444985 14.699549 25.341466
3731  3 0.0000  81.858469  8.731661  0.446587
3732  3 0.0000  93.720641 11.978575  6.670307
3733  3 0.0000 105.582813 15.225489 12.894027
3734  3 0.0000 117.444986 18.472403 19.117746
3735  3 0.0000 129.307158 21.719317 25.341466
3736  3 0.0000  93.720642 15.751429  0.446587
3737  3 0.0000 105.582814 18.998343  6.670307
3738  3 0.0000 117.444986 22.245257 12.894027
3739  3 0.0000 129.307158 25.492171 19.117746
3740  3 0.0000 141.169330 28.739085 25.341466
3741  3 0.0000 105.582814 22.771197  0.446587
3742  3 0.0000 117.444987 26.018110  6.670307
3743  3 0.0000 129.307159 29.265024 12.894027
3744  3 0.0000 141.169331 32.511938 19.117746
3745  3 0.0000 153.031503 35.758852 25.341466
3746  3 0.0000 117.444987 29.790964  0.446587
3747  3 0.0000 129.307159 33.037878  6.670307
3748  3 0.0000 141.169331 36.284792 12.894027
3749  3 0.0000 153.031503 39.531706 19.117746
3750  3 0.0000 164.893675 42.778620 25.341466
3751  3 0.0000  19.446781  8.143149  2.951762
3752  3 0.0000  31.308953 11.390063  9.175482
3753  3 0.0000  43.171125 14.636977 15.399201
3754  3 0.0000  55.033297 17.883891 21.622921
3755  3 0.0000  66.895469 21.130805 27.846640
3756  3 0.0000  31.308953 15.162917  2.951762
3757  3 0.0000  43.171125 18.409831  9.175482
3758  3 0.0000  55.033297 21.656745 15.399201
3759  3 0.0000  66.895470 24.903659 21.622921
3760  3 0.0000  78.757642 28.150573 27.846640
3761  3 0.0000  43.171126 22.182685  2.951762
3762  3 0.0000  55.033298 25.429598  9.175482
3763  3 0.0000  66.895470 28.676512 15.399201
3764  3 0.0000  78.757642 31.923426 21.622921
3765  3 0.0000  90.619814 35.170340 27.846640
3766  3 0.0000  55.033298 29.202452  2.951762
3767  3 0.0000  66.895470 32.449366  9.175482
3768  3 0.0000  78.757643 35.696280 15.399201
3769  3 0.0000  90.619815 38.943194 21.622921
3770  3 0.0000 102.481987 42.190108 27.846640
3771  3 0.0000  66.895471 36.222220  2.951762
3772  3 0.0000  78.757643 39.469134  9.175482
3773  3 0.0000  90.619815 42.716048 15.399201
3774  3 0.0000 102.481987 45.962962 21.622921
3775  3 0.0000 114.344159 49.209875 27.846640
3776  3 0.0000  33.230404  8.143149  2.951762
3777  3 0.0000  45.092576 11.390063  9.175482
3778  3 0.0000  56.954748 14.636977 15.399201
3779  3 0.0000  68.816920 17.883891 21.622921
3780  3 0.0000  80.679093 21.130805 27.846640
3781  3 0.0000  45.092577 15.162917  2.951762
3782  3 0.0000  56.954749 18.409831  9.175482
3783  3 0.0000  68.816921 21.656745 15.399201
3784  3 0.0000  80.679093 24.903659 21.622921
3785  3 0.0000  92.541265 28.150573 27.846640
3786  3 0.0000  56.954749 22.182685  2.951762
3787  3 0.0000  68.816921 25.429598  9.175482
3788  3 0.0000  80.679093 28.676512 15.399201
3789  3 0.0000  92.541266 31.923426 21.622921
3790  3 0.0000 104.403438 35.170340 27.846640
3791  3 0.0000  68.816922 29.202452  2.951762
3792  3 0.0000  80.679094 32.449366  9.175482
3793  3 0.0000  92.541266 35.696280 15.399201
3794  3 0.0000 104.403438 38.943194 21.622921
3795  3 0.0000 116.265610 42.190108 27.846640
3796  3 0.0000  80.679094 36.222220  2.951762
3797  3 0.0000  92.541266 39.469134  9.175482
3798  3 0.0000 104.403439 42.716048 15.399201
3799  3 0.0000 116.265611 45.962962 21.622921
3800  3 0.0000 128.127783 49.209875 27.846640
3801  3 0.0000  47.014027  8.143149  2.951762
3802  3 0.0000  58.876200 11.390063  9.175482
3803  3 0.0000  70.738372 14.636977 15.399201
3804  3 0.0000  82.600544 17.883891 21.622921
3805  3 0.0000  94.462716 21.130805 27.846640
3806  3 0.0000  58.876200 15.162917  2.951762
3807  3 0.0000  70.738372 18.409831  9.175482
3808  3 0.0000  82.600544 21.656745 15.399201
3809  3 0.0000  94.462716 24.903659 21.622921
3810  3 0.0000 106.324889 28.150573 27.846640
3811  3 0.0000  70.738373 22.182685  2.951762
3812  3 0.0000  82.600545 25.429598  9.175482
3813  3 0.0000  94.462717 28.676512 15.399201
3814  3 0.0000 106.324889 31.923426 21.622921
3815  3 0.0000 118.187061 35.170340 27.846640
3816  3 0.0000  82.600545 29.202452  2.951762
3817  3 0.0000  94.462717 32.449366  9.175482
3818  3 0.0000 106.324890 35.696280 15.399201
3819  3 0.0000 118.187062 38.943194 21.622921
3820  3 0.0000 130.049234 42.190108 27.846640
3821  3 0.0000  94.462718 36.222220  2.951762
3822  3 0.0000 106.324890 39.469134  9.175482
3823  3 0.0000 118.187062 42.716048 15.399201
3824  3 0.0000 130.049234 45.962962 21.622921
3825  3 0.0000 141.911406 49.209875 27.846640
3826  3 0.0000  60.797651  8.143149  2.951762
3827  3 0.0000  72.659823 11.390063  9.175482
3828  3 0.0000  84.521995 14.636977 15.399201
3829  3 0.0000  96.384167 17.883891 21.622921
3830  3 0.0000 108.246340 21.130805 27.846640
3831  3 0.0000  72.659824 15.162917  2.951762
3832  3 0.0000  84.521996 18.409831  9.175482
3833  3 0.0000  96.384168 21.656745 15.399201
3834  3 0.0000 108.246340 24.903659 21.622921
3835  3 0.0000 120.108512 28.150573 27.846640
3836  3 0.0000  84.521996 22.182685  2.951762
3837  3 0.0000  96.384168 25.429598  9.175482
3838  3 0.0000 108.246340 28.676512 15.399201
3839  3 0.0000 120.108513 31.923426 21.622921
3840  3 0.0000 131.970685 35.170340 27.846640
3841  3 0.0000  96.384169 29.202452  2.951762
3842  3 0.0000 108.246341 32.449366  9.175482
3843  3 0.0000 120.108513 35.696280 15.399201
3844  3 0.0000 131.970685 38.943194 21.622921
3845  3 0.0000 143.832857 42.190108 27.846640
3846  3 0.0000 108.246341 36.222220  2.951762
3847  3 0.0000 120.108513 39.469134  9.175482
3848  3 0.0000 131.970686 42.716048 15.399201
3849  3 0.0000 143.832858 45.962962 21.622921
3850  3 0.0000 155.695030 49.209875 27.846640
3851  3 0.0000  74.581274  8.143149  2.951762
3852  3 0.0000  86.443447 11.390063  9.175482
3853  3 0.0000  98.305619 14.636977 15.399201
3854  3 0.0000 110.167791 17.883891 21.622921
3855  3 0.0000 122.029963 21.130805 27.846640
3856  3 0.0000  86.443447 15.162917  2.951762
3857  3 0.0000  98.305619 18.409831  9.175482
3858  3 0.0000 110.167791 21.656745 15.399201
3859  3 0.0000 122.029963 24.903659 21.622921
3860  3 0.0000 133.892136 28.150573 27.846640
3861  3 0.0000  98.305620 22.182685  2.951762
3862  3 0.0000 110.167792 25.429598  9.175482
3863  3 0.0000 122.029964 28.676512 15.399201
3864  3 0.0000 133.892136 31.923426 21.622921
3865  3 0.0000 145.754308 35.170340 27.846640
3866  3 0.0000 110.167792 29.202452  2.951762
3867  3 0.0000 122.029964 32.449366  9.175482
3868  3 0.0000 133.892136 35.696280 15.399201
3869  3 0.0000 145.754309 38.943194 21.622921
3870  3 0.0000 157.616481 42.190108 27.846640
3871  3 0.0000 122.029965 36.222220  2.951762
3872  3 0.0000 133.892137 39.469134  9.175482
3873  3 0.0000 145.754309 42.716048 15.399201
3874  3 0.0000 157.616481 45.962962 21.622921
3875  3 0.0000 169.478653 49.209875 27.846640
3876  3 0.0000  20.883049  3.956510  1.202227
3877  3 0.0000  32.745221  7.203424  7.425946
3878  3 0.0000  44.607393 10.450338 13.649666
3879  3 0.0000  56.469565 13.697252 19.873386
3880  3 0.0000  68.331738 16.944166 26.097105
3881  3 0.0000  32.745222 10.976278  1.202227
3882  3 0.0000  44.607394 14.223192  7.425946
3883  3 0.0000  56.469566 17.470106 13.649666
3884  3 0.0000  68.331738 20.717019 19.873386
3885  3 0.0000  80.193910 23.963933 26.097105
3886  3 0.0000  44.607394 17.996045  1.202227
3887  3 0.0000  56.469566 21.242959  7.425946
3888  3 0.0000  68.331738 24.489873 13.649666
3889  3 0.0000  80.193911 27.736787 19.873386
3890  3 0.0000  92.056083 30.983701 26.097105
3891  3 0.0000  56.469567 25.015813  1.202227
3892  3 0.0000  68.331739 28.262727  7.425946
3893  3 0.0000  80.193911 31.509641 13.649666
3894  3 0.0000  92.056083 34.756555 19.873386
3895  3 0.0000 103.918255 38.003469 26.097105
3896  3 0.0000  68.331739 32.035581  1.202227
3897  3 0.0000  80.193911 35.282495  7.425946
3898  3 0.0000  92.056084 38.529408 13.649666
3899  3 0.0000 103.918256 41.776322 19.873386
3900  3 0.0000 115.780428 45.023236 26.097105
3901  3 0.0000  34.666672  3.956510  1.202227
3902  3 0.0000  46.528845  7.203424  7.425946
3903  3 0.0000  58.391017 10.450338 13.649666
3904  3 0.0000  70.253189 13.697252 19.873386
3905  3 0.0000  82.115361 16.944166 26.097105
3906  3 0.0000  46.528845 10.976278  1.202227
3907  3 0.0000  58.391017 14.223192  7.425946
3908  3 0.0000  70.253189 17.470106 13.649666
3909  3 0.0000  82.115361 20.717019 19.873386
3910  3 0.0000  93.977534 23.963933 26.097105
3911  3 0.0000  58.391018 17.996045  1.202227
3912  3 0.0000  70.253190 21.242959  7.425946
3913  3 0.0000  82.115362 24.489873 13.649666
3914  3 0.0000  93.977534 27.736787 19.873386
3915  3 0.0000 105.839706 30.983701 26.097105
3916  3 0.0000  70.253190 25.015813  1.202227
3917  3 0.0000  82.115362 28.262727  7.425946
3918  3 0.0000  93.977535 31.509641 13.649666
3919  3 0.0000 105.839707 34.756555 19.873386
3920  3 0.0000 117.701879 38.003469 26.097105
3921  3 0.0000  82.115363 32.035581  1.202227
3922  3 0.0000  93.977535 35.282495  7.425946
3923  3 0.0000 105.839707 38.529408 13.649666
3924  3 0.0000 117.701879 41.776322 19.873386
3925  3 0.0000 129.564051 45.023236 26.097105
3926  3 0.0000  48.450296  3.956510  1.202227
3927  3 0.0000  60.312468  7.203424  7.425946
3928  3 0.0000  72.174640 10.450338 13.649666
3929  3 0.0000  84.036812 13.697252 19.873386
3930  3 0.0000  95.898984 16.944166 26.097105
3931  3 0.0000  60.312469 10.976278  1.202227
3932  3 0.0000  72.174641 14.223192  7.425946
3933  3 0.0000  84.036813 17.470106 13.649666
3934  3 0.0000  95.898985 20.717019 19.873386
3935  3 0.0000 107.761157 23.963933 26.097105
3936  3 0.0000  72.174641 17.996045  1.202227
3937  3 0.0000  84.036813 21.242959  7.425946
3938  3 0.0000  95.898985 24.489873 13.649666
3939  3 0.0000 107.761158 27.736787 19.873386
3940  3 0.0000 119.623330 30.983701 26.097105
3941  3 0.0000  84.036814 25.015813  1.202227
3942  3 0.0000  95.898986 28.262727  7.425946
3943  3 0.0000 107.761158 31.509641 13.649666
3944  3 0.0000 119.623330 34.756555 19.873386
3945  3 0.0000 131.485502 38.003469 26.097105
3946  3 0.0000  95.898986 32.035581  1.202227
3947  3 0.0000 107.761158 35.282495  7.425946
3948  3 0.0000 119.623331 38.529408 13.649666
3949  3 0.0000 131.485503 41.776322 19.873386
3950  3 0.0000 143.347675 45.023236 26.097105
3951  3 0.0000  62.233919  3.956510  1.202227
3952  3 0.0000  74.096092  7.203424  7.425946
3953  3 0.0000  85.958264 10.450338 13.649666
3954  3 0.0000  97.820436 13.697252 19.873386
3955  3 0.0000 109.682608 16.944166 26.097105
3956  3 0.0000  74.096092 10.976278  1.202227
3957  3 0.0000  85.958264 14.223192  7.425946
3958  3 0.0000  97.820436 17.470106 13.649666
3959  3 0.0000 109.682608 20.717019 19.873386
3960  3 0.0000 121.544781 23.963933 26.097105
3961  3 0.0000  85.958265 17.996045  1.202227
3962  3 0.0000  97.820437 21.242959  7.425946
3963  3 0.0000 109.682609 24.489873 13.649666
3964  3 0.0000 121.544781 27.736787 19.873386
3965  3 0.0000 133.406953 30.983701 26.097105
3966  3 0.0000  97.820437 25.015813  1.202227
3967  3 0.0000 109.682609 28.262727  7.425946
3968  3 0.0000 121.544781 31.509641 13.649666
3969  3 0.0000 133.406954 34.756555 19.873386
3970  3 0.0000 145.269126 38.003469 26.097105
3971  3 0.0000 109.682610 32.035581  1.202227
3972  3 0.0000 121.544782 35.282495  7.425946
3973  3 0.0000 133.406954 38.529408 13.649666
3974  3 0.0000 145.269126 41.776322 19.873386
3975  3 0.0000 157.131298 45.023236 26.097105
3976  3 0.0000  76.017543  3.956510  1.202227
3977  3 0.0000  87.879715  7.203424  7.425946
3978  3 0.0000  99.741887 10.450338 13.649666
3979  3 0.0000 111.604059 13.697252 19.873386
3980  3 0.0000 123.466231 16.944166 26.097105
3981  3 0.0000  87.879715 10.976278  1.202227
3982  3 0.0000  99.741888 14.223192  7.425946
3983  3 0.0000 111.604060 17.470106 13.649666
3984  3 0.0000 123.466232 20.717019 19.873386
3985  3 0.0000 135.328404 23.963933 26.097105
3986  3 0.0000  99.741888 17.996045  1.202227
3987  3 0.0000 111.604060 21.242959  7.425946
3988  3 0.0000 123.466232 24.489873 13.649666
3989  3 0.0000 135.328404 27.736787 19.873386
3990  3 0.0000 147.190577 30.983701 26.097105
3991  3 0.0000 111.604061 25.015813  1.202227
3992  3 0.0000 123.466233 28.262727  7.425946
3993  3 0.0000 135.328405 31.509641 13.649666
3994  3 0.0000 147.190577 34.756555 19.873386
3995  3 0.0000 159.052749 38.003469 26.097105
3996  3 0.0000 123.466233 32.035581  1.202227
3997  3 0.0000 135.328405 35.282495  7.425946
3998  3 0.0000 147.190577 38.529408 13.649666
3999  3 0.0000 159.052750 41.776322 19.873386
4000  3 0.0000 170.914922 45.023236 26.097105
4001  3 0.0000  19.986915  4.410241  5.854405
4002  3 0.0000  31.849087  7.657155 12.078124
4003  3 0.0000  43.711259 10.904068 18.301844
4004  3 0.0000  55.573431 14.150982 24.525564
4005  3 0.0000  67.435603 17.397896 30.749283
4006  3 0.0000  31.849087 11.430008  5.854405
4007  3 0.0000  43.711260 14.676922 12.078124
4008  3 0.0000  55.573432 17.923836 18.301844
4009  3 0.0000  67.435604 21.170750 24.525564
4010  3 0.0000  79.297776 24.417664 30.749283
4011  3 0.0000  43.711260 18.449776  5.854405
4012  3 0.0000  55.573432 21.696690 12.078124
4013  3 0.0000  67.435604 24.943604 18.301844
4014  3 0.0000  79.297776 28.190518 24.525564
4015  3 0.0000  91.159949 31.437432 30.749283
4016  3 0.0000  55.573433 25.469544  5.854405
4017  3 0.0000  67.435605 28.716457 12.078124
4018  3 0.0000  79.297777 31.963371 18.301844
4019  3 0.0000  91.159949 35.210285 24.525564
4020  3 0.0000 103.022121 38.457199 30.749283
4021  3 0.0000  67.435605 32.489311  5.854405
4022  3 0.0000  79.297777 35.736225 12.078124
4023  3 0.0000  91.159949 38.983139 18.301844
4024  3 0.0000 103.022122 42.230053 24.525564
4025  3 0.0000 114.884294 45.476967 30.749283
4026  3 0.0000  33.770538  4.410241  5.854405
4027  3 0.0000  45.632710  7.657155 12.078124
4028  3 0.0000  57.494883 10.904068 18.301844
4029  3 0.0000  69.357055 14.150982 24.525564
4030  3 0.0000  81.219227 17.397896 30.749283
4031  3 0.0000  45.632711 11.430008  5.854405
4032  3 0.0000  57.494883 14.676922 12.078124
4033  3 0.0000  69.357055 17.923836 18.301844
4034  3 0.0000  81.219227 21.170750 24.525564
4035  3 0.0000  93.081399 24.417664 30.749283
4036  3 0.0000  57.494883 18.449776  5.854405
4037  3 0.0000  69.357056 21.696690 12.078124
4038  3 0.0000  81.219228 24.943604 18.301844
4039  3 0.0000  93.081400 28.190518 24.525564
4040  3 0.0000 104.943572 31.437432 30.749283
4041  3 0.0000  69.357056 25.469544  5.854405
4042  3 0.0000  81.219228 28.716457 12.078124
4043  3 0.0000  93.081400 31.963371 18.301844
4044  3 0.0000 104.943572 35.210285 24.525564
4045  3 0.0000 116.805745 38.457199 30.749283
4046  3 0.0000  81.219229 32.489311  5.854405
4047  3 0.0000  93.081401 35.736225 12.078124
4048  3 0.0000 104.943573 38.983139 18.301844
4049  3 0.0000 116.805745 42.230053 24.525564
4050  3 0.0000 128.667917 45.476967 30.749283
4051  3 0.0000  47.554162  4.410241  5.854405
4052  3 0.0000  59.416334  7.657155 12.078124
4053  3 0.0000  71.278506 10.904068 18.301844
4054  3 0.0000  83.140678 14.150982 24.525564
4055  3 0.0000  95.002850 17.397896 30.749283
4056  3 0.0000  59.416334 11.430008  5.854405
4057  3 0.0000  71.278507 14.676922 12.078124
4058  3 0.0000  83.140679 17.923836 18.301844
4059  3 0.0000  95.002851 21.170750 24.525564
4060  3 0.0000 106.865023 24.417664 30.749283
4061  3 0.0000  71.278507 18.449776  5.854405
4062  3 0.0000  83.140679 21.696690 12.078124
4063  3 0.0000  95.002851 24.943604 18.301844
4064  3 0.0000 106.865023 28.190518 24.525564
4065  3 0.0000 118.727195 31.437432 30.749283
4066  3 0.0000  83.140680 25.469544  5.854405
4067  3 0.0000  95.002852 28.716457 12.078124
4068  3 0.0000 106.865024 31.963371 18.301844
4069  3 0.0000 118.727196 35.210285 24.525564
4070  3 0.0000 130.589368 38.457199 30.749283
4071  3 0.0000  95.002852 32.489311  5.854405
4072  3 0.0000 106.865024 35.736225 12.078124
4073  3 0.0000 118.727196 38.983139 18.301844
4074  3 0.0000 130.589369 42.230053 24.525564
4075  3 0.0000 142.451541 45.476967 30.749283
4076  3 0.0000  61.337785  4.410241  5.854405
4077  3 0.0000  73.199957  7.657155 12.078124
4078  3 0.0000  85.062130 10.904068 18.301844
4079  3 0.0000  96.924302 14.150982 24.525564
4080  3 0.0000 108.786474 17.397896 30.749283
4081  3 0.0000  73.199958 11.430008  5.854405
4082  3 0.0000  85.062130 14.676922 12.078124
4083  3 0.0000  96.924302 17.923836 18.301844
4084  3 0.0000 108.786474 21.170750 24.525564
4085  3 0.0000 120.648646 24.417664 30.749283
4086  3 0.0000  85.062130 18.449776  5.854405
4087  3 0.0000  96.924303 21.696690 12.078124
4088  3 0.0000 108.786475 24.943604 18.301844
4089  3 0.0000 120.648647 28.190518 24.525564
4090  3 0.0000 132.510819 31.437432 30.749283
4091  3 0.0000  96.924303 25.469544  5.854405
4092  3 0.0000 108.786475 28.716457 12.078124
4093  3 0.0000 120.648647 31.963371 18.301844
4094  3 0.0000 132.510819 35.210285 24.525564
4095  3 0.0000 144.372992 38.457199 30.749283
4096  3 0.0000 108.786476 32.489311  5.854405
4097  3 0.0000 120.648648 35.736225 12.078124
4098  3 0.0000 132.510820 38.983139 18.301844
4099  3 0.0000 144.372992 42.230053 24.525564
4100  3 0.0000 156.235164 45.476967 30.749283
4101  3 0.0000  75.121409  4.410241  5.854405
4102  3 0.0000  86.983581  7.657155 12.078124
4103  3 0.0000  98.845753 10.904068 18.301844
4104  3 0.0000 110.707925 14.150982 24.525564
4105  3 0.0000 122.570097 17.397896 30.749283
4106  3 0.0000  86.983581 11.430008  5.854405
4107  3 0.0000  98.845753 14.676922 12.078124
4108  3 0.0000 110.707926 17.923836 18.301844
4109  3 0.0000 122.570098 21.170750 24.525564
4110  3 0.0000 134.432270 24.417664 30.749283
4111  3 0.0000  98.845754 18.449776  5.854405
4112  3 0.0000 110.707926 21.696690 12.078124
4113  3 0.0000 122.570098 24.943604 18.301844
4114  3 0.0000 134.432270 28.190518 24.525564
4115  3 0.0000 146.294442 31.437432 30.749283
4116  3 0.0000 110.707926 25.469544  5.854405
4117  3 0.0000 122.570099 28.716457 12.078124
4118  3 0.0000 134.432271 31.963371 18.301844
4119  3 0.0000 146.294443 35.210285 24.525564
4120  3 0.0000 158.156615 38.457199 30.749283
4121  3 0.0000 122.570099 32.489311  5.854405
4122  3 0.0000 134.432271 35.736225 12.078124
4123  3 0.0000 146.294443 38.983139 18.301844
4124  3 0.0000 158.156615 42.230053 24.525564
4125  3 0.0000 170.018788 45.476967 30.749283
4126  3 0.0000  11.654559  2.237409  0.160098
4127  3 0.0000  23.516731  5.484323  6.383818
4128  3 0.0000  35.378903  8.731236 12.607537
4129  3 0.0000  47.241075 11.978150 18.831257
4130  3 0.0000  59.103247 15.225064 25.054976
4131  3 0.0000  23.516731  9.257176  0.160098
4132  3 0.0000  35.378903 12.504090  6.383818
4133  3 0.0000  47.241076 15.751004 12.607537
4134  3 0.0000  59.103248 18.997918 18.831257
4135  3 0.0000  70.965420 22.244832 25.054976
4136  3 0.0000  35.378904 16.276944  0.160098
4137  3 0.0000  47.241076 19.523858  6.383818
4138  3 0.0000  59.103248 22.770772 12.607537
4139  3 0.0000  70.965420 26.017686 18.831257
4140  3 0.0000  82.827592 29.264600 25.054976
4141  3 0.0000  47.241076 23.296712  0.160098
4142  3 0.0000  59.103249 26.543625  6.383818
4143  3 0.0000  70.965421 29.790539 12.607537
4144  3 0.0000  82.827593 33.037453 18.831257
4145  3 0.0000  94.689765 36.284367 25.054976
4146  3 0.0000  59.103249 30.316479  0.160098
4147  3 0.0000  70.965421 33.563393  6.383818
4148  3 0.0000  82.827593 36.810307 12.607537
4149  3 0.0000  94.689765 40.057221 18.831257
4150  3 0.0000 106.551938 43.304135 25.054976
4151  3 0.0000  25.438182  2.237409  0.160098
4152  3 0.0000  37.300354  5.484323  6.383818
4153  3 0.0000  49.162526  8.731236 12.607537
4154  3 0.0000  61.024699 11.978150 18.831257
4155  3 0.0000  72.886871 15.225064 25.054976
4156  3 0.0000  37.300355  9.257176  0.160098
4157  3 0.0000  49.162527 12.504090  6.383818
4158  3 0.0000  61.024699 15.751004 12.607537
4159  3 0.0000  72.886871 18.997918 18.831257
4160  3 0.0000  84.749043 22.244832 25.054976
4161  3 0.0000  49.162527 16.276944  0.160098
4162  3 0.0000  61.024699 19.523858  6.383818
4163  3 0.0000  72.886872 22.770772 12.607537
4164  3 0.0000  84.749044 26.017686 18.831257
4165  3 0.0000  96.611216 29.264600 25.054976
4166  3 0.0000  61.024700 23.296712  0.160098
4167  3 0.0000  72.886872 26.543625  6.383818
4168  3 0.0000  84.749044 29.790539 12.607537
4169  3 0.0000  96.611216 33.037453 18.831257
4170  3 0.0000 108.473388 36.284367 25.054976
4171  3 0.0000  72.886872 30.316479  0.160098
4172  3 0.0000  84.749045 33.563393  6.383818
4173  3 0.0000  96.611217 36.810307 12.607537
4174  3 0.0000 108.473389 40.057221 18.831257
4175  3 0.0000 120.335561 43.304135 25.054976
4176  3 0.0000  39.221806  2.237409  0.160098
4177  3 0.0000  51.083978  5.484323  6.383818
4178  3 0.0000  62.946150  8.731236 12.607537
4179  3 0.0000  74.808322 11.978150 18.831257
4180  3 0.0000  86.670494 15.225064 25.054976
4181  3 0.0000  51.083978  9.257176  0.160098
4182  3 0.0000  62.946150 12.504090  6.383818
4183  3 0.0000  74.808322 15.751004 12.607537
4184  3 0.0000  86.670495 18.997918 18.831257
4185  3 0.0000  98.532667 22.244832 25.054976
4186  3 0.0000  62.946151 16.276944  0.160098
4187  3 0.0000  74.808323 19.523858  6.383818
4188  3 0.0000  86.670495 22.770772 12.607537
4189  3 0.0000  98.532667 26.017686 18.831257
4190  3 0.0000 110.394839 29.264600 25.054976
4191  3 0.0000  74.808323 23.296712  0.160098
4192  3 0.0000  86.670495 26.543625  6.383818
4193  3 0.0000  98.532668 29.790539 12.607537
4194  3 0.0000 110.394840 33.037453 18.831257
4195  3 0.0000 122.257012 36.284367 25.054976
4196  3 0.0000  86.670496 30.316479  0.160098
4197  3 0.0000  98.532668 33.563393  6.383818
4198  3 0.0000 110.394840 36.810307 12.607537
4199  3 0.0000 122.257012 40.057221 18.831257
4200  3 0.0000 134.119184 43.304135 25.054976
4201  3 0.0000  53.005429  2.237409  0.160098
4202  3 0.0000  64.867601  5.484323  6.383818
4203  3 0.0000  76.729773  8.731236 12.607537
4204  3 0.0000  88.591945 11.978150 18.831257
4205  3 0.0000 100.454118 15.225064 25.054976
4206  3 0.0000  64.867602  9.257176  0.160098
4207  3 0.0000  76.729774 12.504090  6.383818
4208  3 0.0000  88.591946 15.751004 12.607537
4209  3 0.0000 100.454118 18.997918 18.831257
4210  3 0.0000 112.316290 22.244832 25.054976
4211  3 0.0000  76.729774 16.276944  0.160098
4212  3 0.0000  88.591946 19.523858  6.383818
4213  3 0.0000 100.454119 22.770772 12.607537
4214  3 0.0000 112.316291 26.017686 18.831257
4215  3 0.0000 124.178463 29.264600 25.054976
4216  3 0.0000  88.591947 23.296712  0.160098
4217  3 0.0000 100.454119 26.543625  6.383818
4218  3 0.0000 112.316291 29.790539 12.607537
4219  3 0.0000 124.178463 33.037453 18.831257
4220  3 0.0000 136.040635 36.284367 25.054976
4221  3 0.0000 100.454119 30.316479  0.160098
4222  3 0.0000 112.316292 33.563393  6.383818
4223  3 0.0000 124.178464 36.810307 12.607537
4224  3 0.0000 136.040636 40.057221 18.831257
4225  3 0.0000 147.902808 43.304135 25.054976
4226  3 0.0000  66.789053  2.237409  0.160098
4227  3 0.0000  78.651225  5.484323  6.383818
4228  3 0.0000  90.513397  8.731236 12.607537
4229  3 0.0000 102.375569 11.978150 18.831257
4230  3 0.0000 114.237741 15.225064 25.054976
4231  3 0.0000  78.651225  9.257176  0.160098
4232  3 0.0000  90.513397 12.504090  6.383818
4233  3 0.0000 102.375569 15.751004 12.607537
4234  3 0.0000 114.237742 18.997918 18.831257
4235  3 0.0000 126.099914 22.244832 25.054976
4236  3 0.0000  90.513398 16.276944  0.160098
4237  3 0.0000 102.375570 19.523858  6.383818
4238  3 0.0000 114.237742 22.770772 12.607537
4239  3 0.0000 126.099914 26.017686 18.831257
4240  3 0.0000 137.962086 29.264600 25.054976
4241  3 0.0000 102.375570 23.296712  0.160098
4242  3 0.0000 114.237742 26.543625  6.383818
4243  3 0.0000 126.099915 29.790539 12.607537
4244  3 0.0000 137.962087 33.037453 18.831257
4245  3 0.0000 149.824259 36.284367 25.054976
4246  3 0.0000 114.237743 30.316479  0.160098
4247  3 0.0000 126.099915 33.563393  6.383818
4248  3 0.0000 137.962087 36.810307 12.607537
4249  3 0.0000 149.824259 40.057221 18.831257
4250  3 0.0000 161.686431 43.304135 25.054976
4251  3 0.0000  11.169376  1.996704  3.481175
4252  3 0.0000  23.031548  5.243618  9.704894
4253  3 0.0000  34.893720  8.490532 15.928614
4254  3 0.0000  46.755892 11.737446 22.152334
4255  3 0.0000  58.618064 14.984359 28.376053
4256  3 0.0000  23.031548  9.016471  3.481175
4257  3 0.0000  34.893721 12.263385  9.704894
4258  3 0.0000  46.755893 15.510299 15.928614
4259  3 0.0000  58.618065 18.757213 22.152334
4260  3 0.0000  70.480237 22.004127 28.376053
4261  3 0.0000  34.893721 16.036239  3.481175
4262  3 0.0000  46.755893 19.283153  9.704894
4263  3 0.0000  58.618065 22.530067 15.928614
4264  3 0.0000  70.480237 25.776981 22.152334
4265  3 0.0000  82.342410 29.023895 28.376053
4266  3 0.0000  46.755894 23.056007  3.481175
4267  3 0.0000  58.618066 26.302921  9.704894
4268  3 0.0000  70.480238 29.549834 15.928614
4269  3 0.0000  82.342410 32.796748 22.152334
4270  3 0.0000  94.204582 36.043662 28.376053
4271  3 0.0000  58.618066 30.075774  3.481175
4272  3 0.0000  70.480238 33.322688  9.704894
4273  3 0.0000  82.342410 36.569602 15.928614
4274  3 0.0000  94.204583 39.816516 22.152334
4275  3 0.0000 106.066755 43.063430 28.376053
4276  3 0.0000  24.952999  1.996704  3.481175
4277  3 0.0000  36.815171  5.243618  9.704894
4278  3 0.0000  48.677344  8.490532 15.928614
4279  3 0.0000  60.539516 11.737446 22.152334
4280  3 0.0000  72.401688 14.984359 28.376053
4281  3 0.0000  36.815172  9.016471  3.481175
4282  3 0.0000  48.677344 12.263385  9.704894
4283  3 0.0000  60.539516 15.510299 15.928614
4284  3 0.0000  72.401688 18.757213 22.152334
4285  3 0.0000  84.263860 22.004127 28.376053
4286  3 0.0000  48.677345 16.036239  3.481175
4287  3 0.0000  60.539517 19.283153  9.704894
4288  3 0.0000  72.401689 22.530067 15.928614
4289  3 0.0000  84.263861 25.776981 22.152334
4290  3 0.0000  96.126033 29.023895 28.376053
4291  3 0.0000  60.539517 23.056007  3.481175
4292  3 0.0000  72.401689 26.302921  9.704894
4293  3 0.0000  84.263861 29.549834 15.928614
4294  3 0.0000  96.126033 32.796748 22.152334
4295  3 0.0000 107.988206 36.043662 28.376053
4296  3 0.0000  72.401690 30.075774  3.481175
4297  3 0.0000  84.263862 33.322688  9.704894
4298  3 0.0000  96.126034 36.569602 15.928614
4299  3 0.0000 107.988206 39.816516 22.152334
4300  3 0.0000 119.850378 43.063430 28.376053
4301  3 0.0000  38.736623  1.996704  3.481175
4302  3 0.0000  50.598795  5.243618  9.704894
4303  3 0.0000  62.460967  8.490532 15.928614
4304  3 0.0000  74.323139 11.737446 22.152334
4305  3 0.0000  86.185311 14.984359 28.376053
4306  3 0.0000  50.598795  9.016471  3.481175
4307  3 0.0000  62.460968 12.263385  9.704894
4308  3 0.0000  74.323140 15.510299 15.928614
4309  3 0.0000  86.185312 18.757213 22.152334
4310  3 0.0000  98.047484 22.004127 28.376053
4311  3 0.0000  62.460968 16.036239  3.481175
4312  3 0.0000  74.323140 19.283153  9.704894
4313  3 0.0000  86.185312 22.530067 15.928614
4314  3 0.0000  98.047484 25.776981 22.152334
4315  3 0.0000 109.909657 29.023895 28.376053
4316  3 0.0000  74.323141 23.056007  3.481175
4317  3 0.0000  86.185313 26.302921  9.704894
4318  3 0.0000  98.047485 29.549834 15.928614
4319  3 0.0000 109.909657 32.796748 22.152334
4320  3 0.0000 121.771829 36.043662 28.376053
4321  3 0.0000  86.185313 30.075774  3.481175
4322  3 0.0000  98.047485 33.322688  9.704894
4323  3 0.0000 109.909657 36.569602 15.928614
4324  3 0.0000 121.771830 39.816516 22.152334
4325  3 0.0000 133.634002 43.063430 28.376053
4326  3 0.0000  52.520246  1.996704  3.481175
4327  3 0.0000  64.382418  5.243618  9.704894
4328  3 0.0000  76.244591  8.490532 15.928614
4329  3 0.0000  88.106763 11.737446 22.152334
4330  3 0.0000  99.968935 14.984359 28.376053
4331  3 0.0000  64.382419  9.016471  3.481175
4332  3 0.0000  76.244591 12.263385  9.704894
4333  3 0.0000  88.106763 15.510299 15.928614
4334  3 0.0000  99.968935 18.757213 22.152334
4335  3 0.0000 111.831107 22.004127 28.376053
4336  3 0.0000  76.244591 16.036239  3.481175
4337  3 0.0000  88.106764 19.283153  9.704894
4338  3 0.0000  99.968936 22.530067 15.928614
4339  3 0.0000 111.831108 25.776981 22.152334
4340  3 0.0000 123.693280 29.023895 28.376053
4341  3 0.0000  88.106764 23.056007  3.481175
4342  3 0.0000  99.968936 26.302921  9.704894
4343  3 0.0000 111.831108 29.549834 15.928614
4344  3 0.0000 123.693280 32.796748 22.152334
4345  3 0.0000 135.555453 36.043662 28.376053
4346  3 0.0000  99.968937 30.075774  3.481175
4347  3 0.0000 111.831109 33.322688  9.704894
4348  3 0.0000 123.693281 36.569602 15.928614
4349  3 0.0000 135.555453 39.816516 22.152334
4350  3 0.0000 147.417625 43.063430 28.376053
4351  3 0.0000  66.303870  1.996704  3.481175
4352  3 0.0000  78.166042  5.243618  9.704894
4353  3 0.0000  90.028214  8.490532 15.928614
4354  3 0.0000 101.890386 11.737446 22.152334
4355  3 0.0000 113.752558 14.984359 28.376053
4356  3 0.0000  78.166042  9.016471  3.481175
4357  3 0.0000  90.028214 12.263385  9.704894
4358  3 0.0000 101.890387 15.510299 15.928614
4359  3 0.0000 113.752559 18.757213 22.152334
4360  3 0.0000 125.614731 22.004127 28.376053
4361  3 0.0000  90.028215 16.036239  3.481175
4362  3 0.0000 101.890387 19.283153  9.704894
4363  3 0.0000 113.752559 22.530067 15.928614
4364  3 0.0000 125.614731 25.776981 22.152334
4365  3 0.0000 137.476903 29.023895 28.376053
4366  3 0.0000 101.890388 23.056007  3.481175
4367  3 0.0000 113.752560 26.302921  9.704894
4368  3 0.0000 125.614732 29.549834 15.928614
4369  3 0.0000 137.476904 32.796748 22.152334
4370  3 0.0000 149.339076 36.043662 28.376053
4371  3 0.0000 113.752560 30.075774  3.481175
4372  3 0.0000 125.614732 33.322688  9.704894
4373  3 0.0000 137.476904 36.569602 15.928614
4374  3 0.0000 149.339076 39.816516 22.152334
4375  3 0.0000 161.201249 43.063430 28.376053
4376  3 0.0000  10.629241  4.922691  1.909633
4377  3 0.0000  22.491414  8.169605  8.133353
4378  3 0.0000  34.353586 11.416519 14.357072
4379  3 0.0000  46.215758 14.663433 20.580792
4380  3 0.0000  58.077930 17.910347 26.804512
4381  3 0.0000  22.491414 11.942459  1.909633
4382  3 0.0000  34.353586 15.189373  8.133353
4383  3 0.0000  46.215758 18.436287 14.357072
4384  3 0.0000  58.077930 21.683201 20.580792
4385  3 0.0000  69.940103 24.930115 26.804512
4386  3 0.0000  34.353587 18.962227  1.909633
4387  3 0.0000  46.215759 22.209141  8.133353
4388  3 0.0000  58.077931 25.456054 14.357072
4389  3 0.0000  69.940103 28.702968 20.580792
4390  3 0.0000  81.802275 31.949882 26.804512
4391  3 0.0000  46.215759 25.981994  1.909633
4392  3 0.0000  58.077931 29.228908  8.133353
4393  3 0.0000  69.940104 32.475822 14.357072
4394  3 0.0000  81.802276 35.722736 20.580792
4395  3 0.0000  93.664448 38.969650 26.804512
4396  3 0.0000  58.077932 33.001762  1.909633
4397  3 0.0000  69.940104 36.248676  8.133353
4398  3 0.0000  81.802276 39.495590 14.357072
4399  3 0.0000  93.664448 42.742504 20.580792
4400  3 0.0000 105.526620 45.989418 26.804512
4401  3 0.0000  24.412865  4.922691  1.909633
4402  3 0.0000  36.275037  8.169605  8.133353
4403  3 0.0000  48.137209 11.416519 14.357072
4404  3 0.0000  59.999381 14.663433 20.580792
4405  3 0.0000  71.861553 17.910347 26.804512
4406  3 0.0000  36.275038 11.942459  1.909633
4407  3 0.0000  48.137210 15.189373  8.133353
4408  3 0.0000  59.999382 18.436287 14.357072
4409  3 0.0000  71.861554 21.683201 20.580792
4410  3 0.0000  83.723726 24.930115 26.804512
4411  3 0.0000  48.137210 18.962227  1.909633
4412  3 0.0000  59.999382 22.209141  8.133353
4413  3 0.0000  71.861554 25.456054 14.357072
4414  3 0.0000  83.723727 28.702968 20.580792
4415  3 0.0000  95.585899 31.949882 26.804512
4416  3 0.0000  59.999383 25.981994  1.909633
4417  3 0.0000  71.861555 29.228908  8.133353
4418  3 0.0000  83.723727 32.475822 14.357072
4419  3 0.0000  95.585899 35.722736 20.580792
4420  3 0.0000 107.448071 38.969650 26.804512
4421  3 0.0000  71.861555 33.001762  1.909633
4422  3 0.0000  83.723727 36.248676  8.133353
4423  3 0.0000  95.585900 39.495590 14.357072
4424  3 0.0000 107.448072 42.742504 20.580792
4425  3 0.0000 119.310244 45.989418 26.804512
4426  3 0.0000  38.196488  4.922691  1.909633
4427  3 0.0000  50.058661  8.169605  8.133353
4428  3 0.0000  61.920833 11.416519 14.357072
4429  3 0.0000  73.783005 14.663433 20.580792
4430  3 0.0000  85.645177 17.910347 26.804512
4431  3 0.0000  50.058661 11.942459  1.909633
4432  3 0.0000  61.920833 15.189373  8.133353
4433  3 0.0000  73.783005 18.436287 14.357072
4434  3 0.0000  85.645177 21.683201 20.580792
4435  3 0.0000  97.507350 24.930115 26.804512
4436  3 0.0000  61.920834 18.962227  1.909633
4437  3 0.0000  73.783006 22.209141  8.133353
4438  3 0.0000  85.645178 25.456054 14.357072
4439  3 0.0000  97.507350 28.702968 20.580792
4440  3 0.0000 109.369522 31.949882 26.804512
4441  3 0.0000  73.783006 25.981994  1.909633
4442  3 0.0000  85.645178 29.228908  8.133353
4443  3 0.0000  97.507350 32.475822 14.357072
4444  3 0.0000 109.369523 35.722736 20.580792
4445  3 0.0000 121.231695 38.969650 26.804512
4446  3 0.0000  85.645179 33.001762  1.909633
4447  3 0.0000  97.507351 36.248676  8.133353
4448  3 0.0000 109.369523 39.495590 14.357072
4449  3 0.0000 121.231695 42.742504 20.580792
4450  3 0.0000 133.093867 45.989418 26.804512
4451  3 0.0000  51.980112  4.922691  1.909633
4452  3 0.0000  63.842284  8.169605  8.133353
4453  3 0.0000  75.704456 11.416519 14.357072
4454  3 0.0000  87.566628 14.663433 20.580792
4455  3 0.0000  99.428800 17.910347 26.804512
4456  3 0.0000  63.842284 11.942459  1.909633
4457  3 0.0000  75.704457 15.189373  8.133353
4458  3 0.0000  87.566629 18.436287 14.357072
4459  3 0.0000  99.428801 21.683201 20.580792
4460  3 0.0000 111.290973 24.930115 26.804512
4461  3 0.0000  75.704457 18.962227  1.909633
4462  3 0.0000  87.566629 22.209141  8.133353
4463  3 0.0000  99.428801 25.456054 14.357072
4464  3 0.0000 111.290973 28.702968 20.580792
4465  3 0.0000 123.153146 31.949882 26.804512
4466  3 0.0000  87.566630 25.981994  1.909633
4467  3 0.0000  99.428802 29.228908  8.133353
4468  3 0.0000 111.290974 32.475822 14.357072
4469  3 0.0000 123.153146 35.722736 20.580792
4470  3 0.0000 135.015318 38.969650 26.804512
4471  3 0.0000  99.428802 33.001762  1.909633
4472  3 0.0000 111.290974 36.248676  8.133353
4473  3 0.0000 123.153146 39.495590 14.357072
4474  3 0.0000 135.015319 42.742504 20.580792
4475  3 0.0000 146.877491 45.989418 26.804512
4476  3 0.0000  65.763735  4.922691  1.909633
4477  3 0.0000  77.625908  8.169605  8.133353
4478  3 0.0000  89.488080 11.416519 14.357072
4479  3 0.0000 101.350252 14.663433 20.580792
4480  3 0.0000 113.212424 17.910347 26.804512
4481  3 0.0000  77.625908 11.942459  1.909633
4482  3 0.0000  89.488080 15.189373  8.133353
4483  3 0.0000 101.350252 18.436287 14.357072
4484  3 0.0000 113.212424 21.683201 20.580792
4485  3 0.0000 125.074596 24.930115 26.804512
4486  3 0.0000  89.488081 18.962227  1.909633
4487  3 0.0000 101.350253 22.209141  8.133353
4488  3 0.0000 113.212425 25.456054 14.357072
4489  3 0.0000 125.074597 28.702968 20.580792
4490  3 0.0000 136.936769 31.949882 26.804512
4491  3 0.0000 101.350253 25.981994  1.909633
4492  3 0.0000 113.212425 29.228908  8.133353
4493  3 0.0000 125.074597 32.475822 14.357072
4494  3 0.0000 136.936770 35.722736 20.580792
4495  3 0.0000 148.798942 38.969650 26.804512
4496  3 0.0000 113.212426 33.001762  1.909633
4497  3 0.0000 125.074598 36.248676  8.133353
4498  3 0.0000 136.936770 39.495590 14.357072
4499  3 0.0000 148.798942 42.742504 20.580792
4500  3 0.0000 160.661114 45.989418 26.804512
4501  3 0.0000  18.061188  2.123532  3.271958
4502  3 0.0000  29.923360  5.370446  9.495677
4503  3 0.0000  41.785532  8.617360 15.719397
4504  3 0.0000  53.647704 11.864274 21.943117
4505  3 0.0000  65.509876 15.111188 28.166836
4506  3 0.0000  29.923360  9.143300  3.271958
4507  3 0.0000  41.785532 12.390214  9.495677
4508  3 0.0000  53.647704 15.637128 15.719397
4509  3 0.0000  65.509877 18.884042 21.943117
4510  3 0.0000  77.372049 22.130956 28.166836
4511  3 0.0000  41.785533 16.163068  3.271958
4512  3 0.0000  53.647705 19.409981  9.495677
4513  3 0.0000  65.509877 22.656895 15.719397
4514  3 0.0000  77.372049 25.903809 21.943117
4515  3 0.0000  89.234221 29.150723 28.166836
4516  3 0.0000  53.647705 23.182835  3.271958
4517  3 0.0000  65.509878 26.429749  9.495677
4518  3 0.0000  77.372050 29.676663 15.719397
4519  3 0.0000  89.234222 32.923577 21.943117
4520  3 0.0000 101.096394 36.170491 28.166836
4521  3 0.0000  65.509878 30.202603  3.271958
4522  3 0.0000  77.372050 33.449517  9.495677
4523  3 0.0000  89.234222 36.696431 15.719397
4524  3 0.0000 101.096394 39.943345 21.943117
4525  3 0.0000 112.958566 43.190258 28.166836
4526  3 0.0000  31.844811  2.123532  3.271958
4527  3 0.0000  43.706983  5.370446  9.495677
4528  3 0.0000  55.569155  8.617360 15.719397
4529  3 0.0000  67.431328 11.864274 21.943117
4530  3 0.0000  79.293500 15.111188 28.166836
4531  3 0.0000  43.706984  9.143300  3.271958
4532  3 0.0000  55.569156 12.390214  9.495677
4533  3 0.0000  67.431328 15.637128 15.719397
4534  3 0.0000  79.293500 18.884042 21.943117
4535  3 0.0000  91.155672 22.130956 28.166836
4536  3 0.0000  55.569156 16.163068  3.271958
4537  3 0.0000  67.431328 19.409981  9.495677
4538  3 0.0000  79.293501 22.656895 15.719397
4539  3 0.0000  91.155673 25.903809 21.943117
4540  3 0.0000 103.017845 29.150723 28.166836
4541  3 0.0000  67.431329 23.182835  3.271958
4542  3 0.0000  79.293501 26.429749  9.495677
4543  3 0.0000  91.155673 29.676663 15.719397
4544  3 0.0000 103.017845 32.923577 21.943117
4545  3 0.0000 114.880017 36.170491 28.166836
4546  3 0.0000  79.293501 30.202603  3.271958
4547  3 0.0000  91.155674 33.449517  9.495677
4548  3 0.0000 103.017846 36.696431 15.719397
4549  3 0.0000 114.880018 39.943345 21.943117
4550  3 0.0000 126.742190 43.190258 28.166836
4551  3 0.0000  45.628435  2.123532  3.271958
4552  3 0.0000  57.490607  5.370446  9.495677
4553  3 0.0000  69.352779  8.617360 15.719397
4554  3 0.0000  81.214951 11.864274 21.943117
4555  3 0.0000  93.077123 15.111188 28.166836
4556  3 0.0000  57.490607  9.143300  3.271958
4557  3 0.0000  69.352779 12.390214  9.495677
4558  3 0.0000  81.214951 15.637128 15.719397
4559  3 0.0000  93.077124 18.884042 21.943117
4560  3 0.0000 104.939296 22.130956 28.166836
4561  3 0.0000  69.352780 16.163068  3.271958
4562  3 0.0000  81.214952 19.409981  9.495677
4563  3 0.0000  93.077124 22.656895 15.719397
4564  3 0.0000 104.939296 25.903809 21.943117
4565  3 0.0000 116.801468 29.150723 28.166836
4566  3 0.0000  81.214952 23.182835  3.271958
4567  3 0.0000  93.077124 26.429749  9.495677
4568  3 0.0000 104.939297 29.676663 15.719397
4569  3 0.0000 116.801469 32.923577 21.943117
4570  3 0.0000 128.663641 36.170491 28.166836
4571  3 0.0000  93.077125 30.202603  3.271958
4572  3 0.0000 104.939297 33.449517  9.495677
4573  3 0.0000 116.801469 36.696431 15.719397
4574  3 0.0000 128.663641 39.943345 21.943117
4575  3 0.0000 140.525813 43.190258 28.166836
4576  3 0.0000  59.412058  2.123532  3.271958
4577  3 0.0000  71.274230  5.370446  9.495677
4578  3 0.0000  83.136402  8.617360 15.719397
4579  3 0.0000  94.998574 11.864274 21.943117
4580  3 0.0000 106.860747 15.111188 28.166836
4581  3 0.0000  71.274231  9.143300  3.271958
4582  3 0.0000  83.136403 12.390214  9.495677
4583  3 0.0000  94.998575 15.637128 15.719397
4584  3 0.0000 106.860747 18.884042 21.943117
4585  3 0.0000 118.722919 22.130956 28.166836
4586  3 0.0000  83.136403 16.163068  3.271958
4587  3 0.0000  94.998575 19.409981  9.495677
4588  3 0.0000 106.860747 22.656895 15.719397
4589  3 0.0000 118.722920 25.903809 21.943117
4590  3 0.0000 130.585092 29.150723 28.166836
4591  3 0.0000  94.998576 23.182835  3.271958
4592  3 0.0000 106.860748 26.429749  9.495677
4593  3 0.0000 118.722920 29.676663 15.719397
4594  3 0.0000 130.585092 32.923577 21.943117
4595  3 0.0000 142.447264 36.170491 28.166836
4596  3 0.0000 106.860748 30.202603  3.271958
4597  3 0.0000 118.722921 33.449517  9.495677
4598  3 0.0000 130.585093 36.696431 15.719397
4599  3 0.0000 142.447265 39.943345 21.943117
4600  3 0.0000 154.309437 43.190258 28.166836
4601  3 0.0000  73.195682  2.123532  3.271958
4602  3 0.0000  85.057854  5.370446  9.495677
4603  3 0.0000  96.920026  8.617360 15.719397
4604  3 0.0000 108.782198 11.864274 21.943117
4605  3 0.0000 120.644370 15.111188 28.166836
4606  3 0.0000  85.057854  9.143300  3.271958
4607  3 0.0000  96.920026 12.390214  9.495677
4608  3 0.0000 108.782198 15.637128 15.719397
4609  3 0.0000 120.644370 18.884042 21.943117
4610  3 0.0000 132.506543 22.130956 28.166836
4611  3 0.0000  96.920027 16.163068  3.271958
4612  3 0.0000 108.782199 19.409981  9.495677
4613  3 0.0000 120.644371 22.656895 15.719397
4614  3 0.0000 132.506543 25.903809 21.943117
4615  3 0.0000 144.368715 29.150723 28.166836
4616  3 0.0000 108.782199 23.182835  3.271958
4617  3 0.0000 120.644371 26.429749  9.495677
4618  3 0.0000 132.506544 29.676663 15.719397
4619  3 0.0000 144.368716 32.923577 21.943117
4620  3 0.0000 156.230888 36.170491 28.166836
4621  3 0.0000 120.644372 30.202603  3.271958
4622  3 0.0000 132.506544 33.449517  9.495677
4623  3 0.0000 144.368716 36.696431 15.719397
4624  3 0.0000 156.230888 39.943345 21.943117
4625  3 0.0000 168.093060 43.190258 28.166836
4626  3 0.0000  16.624919  6.310171  5.021493
4627  3 0.0000  28.487091  9.557085 11.245212
4628  3 0.0000  40.349263 12.803999 17.468932
4629  3 0.0000  52.211436 16.050913 23.692652
4630  3 0.0000  64.073608 19.297827 29.916371
4631  3 0.0000  28.487092 13.329939  5.021493
4632  3 0.0000  40.349264 16.576853 11.245212
4633  3 0.0000  52.211436 19.823767 17.468932
4634  3 0.0000  64.073608 23.070681 23.692652
4635  3 0.0000  75.935780 26.317595 29.916371
4636  3 0.0000  40.349264 20.349707  5.021493
4637  3 0.0000  52.211436 23.596621 11.245212
4638  3 0.0000  64.073609 26.843535 17.468932
4639  3 0.0000  75.935781 30.090448 23.692652
4640  3 0.0000  87.797953 33.337362 29.916371
4641  3 0.0000  52.211437 27.369474  5.021493
4642  3 0.0000  64.073609 30.616388 11.245212
4643  3 0.0000  75.935781 33.863302 17.468932
4644  3 0.0000  87.797953 37.110216 23.692652
4645  3 0.0000  99.660125 40.357130 29.916371
4646  3 0.0000  64.073609 34.389242  5.021493
4647  3 0.0000  75.935782 37.636156 11.245212
4648  3 0.0000  87.797954 40.883070 17.468932
4649  3 0.0000  99.660126 44.129984 23.692652
4650  3 0.0000 111.522298 47.376898 29.916371
4651  3 0.0000  30.408543  6.310171  5.021493
4652  3 0.0000  42.270715  9.557085 11.245212
4653  3 0.0000  54.132887 12.803999 17.468932
4654  3 0.0000  65.995059 16.050913 23.692652
4655  3 0.0000  77.857231 19.297827 29.916371
4656  3 0.0000  42.270715 13.329939  5.021493
4657  3 0.0000  54.132887 16.576853 11.245212
4658  3 0.0000  65.995059 19.823767 17.468932
4659  3 0.0000  77.857232 23.070681 23.692652
4660  3 0.0000  89.719404 26.317595 29.916371
4661  3 0.0000  54.132888 20.349707  5.021493
4662  3 0.0000  65.995060 23.596621 11.245212
4663  3 0.0000  77.857232 26.843535 17.468932
4664  3 0.0000  89.719404 30.090448 23.692652
4665  3 0.0000 101.581576 33.337362 29.916371
4666  3 0.0000  65.995060 27.369474  5.021493
4667  3 0.0000  77.857233 30.616388 11.245212
4668  3 0.0000  89.719405 33.863302 17.468932
4669  3 0.0000 101.581577 37.110216 23.692652
4670  3 0.0000 113.443749 40.357130 29.916371
4671  3 0.0000  77.857233 34.389242  5.021493
4672  3 0.0000  89.719405 37.636156 11.245212
4673  3 0.0000 101.581577 40.883070 17.468932
4674  3 0.0000 113.443749 44.129984 23.692652
4675  3 0.0000 125.305921 47.376898 29.916371
4676  3 0.0000  44.192166  6.310171  5.021493
4677  3 0.0000  56.054338  9.557085 11.245212
4678  3 0.0000  67.916510 12.803999 17.468932
4679  3 0.0000  79.778683 16.050913 23.692652
4680  3 0.0000  91.640855 19.297827 29.916371
4681  3 0.0000  56.054339 13.329939  5.021493
4682  3 0.0000  67.916511 16.576853 11.245212
4683  3 0.0000  79.778683 19.823767 17.468932
4684  3 0.0000  91.640855 23.070681 23.692652
4685  3 0.0000 103.503027 26.317595 29.916371
4686  3 0.0000  67.916511 20.349707  5.021493
4687  3 0.0000  79.778683 23.596621 11.245212
4688  3 0.0000  91.640856 26.843535 17.468932
4689  3 0.0000 103.503028 30.090448 23.692652
4690  3 0.0000 115.365200 33.337362 29.916371
4691  3 0.0000  79.778684 27.369474  5.021493
4692  3 0.0000  91.640856 30.616388 11.245212
4693  3 0.0000 103.503028 33.863302 17.468932
4694  3 0.0000 115.365200 37.110216 23.692652
4695  3 0.0000 127.227372 40.357130 29.916371
4696  3 0.0000  91.640856 34.389242  5.021493
4697  3 0.0000 103.503029 37.636156 11.245212
4698  3 0.0000 115.365201 40.883070 17.468932
4699  3 0.0000 127.227373 44.129984 23.692652
4700  3 0.0000 139.089545 47.376898 29.916371
4701  3 0.0000  57.975790  6.310171  5.021493
4702  3 0.0000  69.837962  9.557085 11.245212
4703  3 0.0000  81.700134 12.803999 17.468932
4704  3 0.0000  93.562306 16.050913 23.692652
4705  3 0.0000 105.424478 19.297827 29.916371
4706  3 0.0000  69.837962 13.329939  5.021493
4707  3 0.0000  81.700134 16.576853 11.245212
4708  3 0.0000  93.562306 19.823767 17.468932
4709  3 0.0000 105.424479 23.070681 23.692652
4710  3 0.0000 117.286651 26.317595 29.916371
4711  3 0.0000  81.700135 20.349707  5.021493
4712  3 0.0000  93.562307 23.596621 11.245212
4713  3 0.0000 105.424479 26.843535 17.468932
4714  3 0.0000 117.286651 30.090448 23.692652
4715  3 0.0000 129.148823 33.337362 29.916371
4716  3 0.0000  93.562307 27.369474  5.021493
4717  3 0.0000 105.424479 30.616388 11.245212
4718  3 0.0000 117.286652 33.863302 17.468932
4719  3 0.0000 129.148824 37.110216 23.692652
4720  3 0.0000 141.010996 40.357130 29.916371
4721  3 0.0000 105.424480 34.389242  5.021493
4722  3 0.0000 117.286652 37.636156 11.245212
4723  3 0.0000 129.148824 40.883070 17.468932
4724  3 0.0000 141.010996 44.129984 23.692652
4725  3 0.0000 152.873168 47.376898 29.916371
4726  3 0.0000  71.759413  6.310171  5.021493
4727  3 0.0000  83.621585  9.557085 11.245212
4728  3 0.0000  95.483757 12.803999 17.468932
4729  3 0.0000 107.345929 16.050913 23.692652
4730  3 0.0000 119.208102 19.297827 29.916371
4731  3 0.0000  83.621586 13.329939  5.021493
4732  3 0.0000  95.483758 16.576853 11.245212
4733  3 0.0000 107.345930 19.823767 17.468932
4734  3 0.0000 119.208102 23.070681 23.692652
4735  3 0.0000 131.070274 26.317595 29.916371
4736  3 0.0000  95.483758 20.349707  5.021493
4737  3 0.0000 107.345930 23.596621 11.245212
4738  3 0.0000 119.208102 26.843535 17.468932
4739  3 0.0000 131.070275 30.090448 23.692652
4740  3 0.0000 142.932447 33.337362 29.916371
4741  3 0.0000 107.345931 27.369474  5.021493
4742  3 0.0000 119.208103 30.616388 11.245212
4743  3 0.0000 131.070275 33.863302 17.468932
4744  3 0.0000 142.932447 37.110216 23.692652
4745  3 0.0000 154.794619 40.357130 29.916371
4746  3 0.0000 119.208103 34.389242  5.021493
4747  3 0.0000 131.070276 37.636156 11.245212
4748  3 0.0000 142.932448 40.883070 17.468932
4749  3 0.0000 154.794620 44.129984 23.692652
4750  3 0.0000 166.656792 47.376898 29.916371
4751  3 0.0000  17.521053  5.856441  0.369315
4752  3 0.0000  29.383225  9.103355  6.593034
4753  3 0.0000  41.245398 12.350269 12.816754
4754  3 0.0000  53.107570 15.597183 19.040474
4755  3 0.0000  64.969742 18.844097 25.264193
4756  3 0.0000  29.383226 12.876209  0.369315
4757  3 0.0000  41.245398 16.123122  6.593034
4758  3 0.0000  53.107570 19.370036 12.816754
4759  3 0.0000  64.969742 22.616950 19.040474
4760  3 0.0000  76.831914 25.863864 25.264193
4761  3 0.0000  41.245398 19.895976  0.369315
4762  3 0.0000  53.107571 23.142890  6.593034
4763  3 0.0000  64.969743 26.389804 12.816754
4764  3 0.0000  76.831915 29.636718 19.040474
4765  3 0.0000  88.694087 32.883632 25.264193
4766  3 0.0000  53.107571 26.915744  0.369315
4767  3 0.0000  64.969743 30.162658  6.593034
4768  3 0.0000  76.831915 33.409572 12.816754
4769  3 0.0000  88.694087 36.656486 19.040474
4770  3 0.0000 100.556260 39.903399 25.264193
4771  3 0.0000  64.969744 33.935511  0.369315
4772  3 0.0000  76.831916 37.182425  6.593034
4773  3 0.0000  88.694088 40.429339 12.816754
4774  3 0.0000 100.556260 43.676253 19.040474
4775  3 0.0000 112.418432 46.923167 25.264193
4776  3 0.0000  31.304677  5.856441  0.369315
4777  3 0.0000  43.166849  9.103355  6.593034
4778  3 0.0000  55.029021 12.350269 12.816754
4779  3 0.0000  66.891193 15.597183 19.040474
4780  3 0.0000  78.753365 18.844097 25.264193
4781  3 0.0000  43.166849 12.876209  0.369315
4782  3 0.0000  55.029022 16.123122  6.593034
4783  3 0.0000  66.891194 19.370036 12.816754
4784  3 0.0000  78.753366 22.616950 19.040474
4785  3 0.0000  90.615538 25.863864 25.264193
4786  3 0.0000  55.029022 19.895976  0.369315
4787  3 0.0000  66.891194 23.142890  6.593034
4788  3 0.0000  78.753366 26.389804 12.816754
4789  3 0.0000  90.615538 29.636718 19.040474
4790  3 0.0000 102.477711 32.883632 25.264193
4791  3 0.0000  66.891195 26.915744  0.369315
4792  3 0.0000  78.753367 30.162658  6.593034
4793  3 0.0000  90.615539 33.409572 12.816754
4794  3 0.0000 102.477711 36.656486 19.040474
4795  3 0.0000 114.339883 39.903399 25.264193
4796  3 0.0000  78.753367 33.935511  0.369315
4797  3 0.0000  90.615539 37.182425  6.593034
4798  3 0.0000 102.477711 40.429339 12.816754
4799  3 0.0000 114.339884 43.676253 19.040474
4800  3 0.0000 126.202056 46.923167 25.264193
4801  3 0.0000  45.088300  5.856441  0.369315
4802  3 0.0000  56.950472  9.103355  6.593034
4803  3 0.0000  68.812645 12.350269 12.816754
4804  3 0.0000  80.674817 15.597183 19.040474
4805  3 0.0000  92.536989 18.844097 25.264193
4806  3 0.0000  56.950473 12.876209  0.369315
4807  3 0.0000  68.812645 16.123122  6.593034
4808  3 0.0000  80.674817 19.370036 12.816754
4809  3 0.0000  92.536989 22.616950 19.040474
4810  3 0.0000 104.399161 25.863864 25.264193
4811  3 0.0000  68.812645 19.895976  0.369315
4812  3 0.0000  80.674818 23.142890  6.593034
4813  3 0.0000  92.536990 26.389804 12.816754
4814  3 0.0000 104.399162 29.636718 19.040474
4815  3 0.0000 116.261334 32.883632 25.264193
4816  3 0.0000  80.674818 26.915744  0.369315
4817  3 0.0000  92.536990 30.162658  6.593034
4818  3 0.0000 104.399162 33.409572 12.816754
4819  3 0.0000 116.261334 36.656486 19.040474
4820  3 0.0000 128.123507 39.903399 25.264193
4821  3 0.0000  92.536991 33.935511  0.369315
4822  3 0.0000 104.399163 37.182425  6.593034
4823  3 0.0000 116.261335 40.429339 12.816754
4824  3 0.0000 128.123507 43.676253 19.040474
4825  3 0.0000 139.985679 46.923167 25.264193
4826  3 0.0000  58.871924  5.856441  0.369315
4827  3 0.0000  70.734096  9.103355  6.593034
4828  3 0.0000  82.596268 12.350269 12.816754
4829  3 0.0000  94.458440 15.597183 19.040474
4830  3 0.0000 106.320612 18.844097 25.264193
4831  3 0.0000  70.734096 12.876209  0.369315
4832  3 0.0000  82.596268 16.123122  6.593034
4833  3 0.0000  94.458441 19.370036 12.816754
4834  3 0.0000 106.320613 22.616950 19.040474
4835  3 0.0000 118.182785 25.863864 25.264193
4836  3 0.0000  82.596269 19.895976  0.369315
4837  3 0.0000  94.458441 23.142890  6.593034
4838  3 0.0000 106.320613 26.389804 12.816754
4839  3 0.0000 118.182785 29.636718 19.040474
4840  3 0.0000 130.044957 32.883632 25.264193
4841  3 0.0000  94.458441 26.915744  0.369315
4842  3 0.0000 106.320614 30.162658  6.593034
4843  3 0.0000 118.182786 33.409572 12.816754
4844  3 0.0000 130.044958 36.656486 19.040474
4845  3 0.0000 141.907130 39.903399 25.264193
4846  3 0.0000 106.320614 33.935511  0.369315
4847  3 0.0000 118.182786 37.182425  6.593034
4848  3 0.0000 130.044958 40.429339 12.816754
4849  3 0.0000 141.907130 43.676253 19.040474
4850  3 0.0000 153.769303 46.923167 25.264193
4851  3 0.0000  72.655547  5.856441  0.369315
4852  3 0.0000  84.517719  9.103355  6.593034
4853  3 0.0000  96.379891 12.350269 12.816754
4854  3 0.0000 108.242064 15.597183 19.040474
4855  3 0.0000 120.104236 18.844097 25.264193
4856  3 0.0000  84.517720 12.876209  0.369315
4857  3 0.0000  96.379892 16.123122  6.593034
4858  3 0.0000 108.242064 19.370036 12.816754
4859  3 0.0000 120.104236 22.616950 19.040474
4860  3 0.0000 131.966408 25.863864 25.264193
4861  3 0.0000  96.379892 19.895976  0.369315
4862  3 0.0000 108.242065 23.142890  6.593034
4863  3 0.0000 120.104237 26.389804 12.816754
4864  3 0.0000 131.966409 29.636718 19.040474
4865  3 0.0000 143.828581 32.883632 25.264193
4866  3 0.0000 108.242065 26.915744  0.369315
4867  3 0.0000 120.104237 30.162658  6.593034
4868  3 0.0000 131.966409 33.409572 12.816754
4869  3 0.0000 143.828581 36.656486 19.040474
4870  3 0.0000 155.690753 39.903399 25.264193
4871  3 0.0000 120.104238 33.935511  0.369315
4872  3 0.0000 131.966410 37.182425  6.593034
4873  3 0.0000 143.828582 40.429339 12.816754
4874  3 0.0000 155.690754 43.676253 19.040474
4875  3 0.0000 167.552926 46.923167 25.264193
4876  3 0.0000  25.853410  8.029273  6.063622
4877  3 0.0000  37.715582 11.276187 12.287341
4878  3 0.0000  49.577754 14.523101 18.511061
4879  3 0.0000  61.439926 17.770015 24.734781
4880  3 0.0000  73.302098 21.016929 30.958500
4881  3 0.0000  37.715582 15.049041  6.063622
4882  3 0.0000  49.577754 18.295954 12.287341
4883  3 0.0000  61.439926 21.542868 18.511061
4884  3 0.0000  73.302099 24.789782 24.734781
4885  3 0.0000  85.164271 28.036696 30.958500
4886  3 0.0000  49.577755 22.068808  6.063622
4887  3 0.0000  61.439927 25.315722 12.287341
4888  3 0.0000  73.302099 28.562636 18.511061
4889  3 0.0000  85.164271 31.809550 24.734781
4890  3 0.0000  97.026443 35.056464 30.958500
4891  3 0.0000  61.439927 29.088576  6.063622
4892  3 0.0000  73.302099 32.335490 12.287341
4893  3 0.0000  85.164272 35.582404 18.511061
4894  3 0.0000  97.026444 38.829318 24.734781
4895  3 0.0000 108.888616 42.076231 30.958500
4896  3 0.0000  73.302100 36.108343  6.063622
4897  3 0.0000  85.164272 39.355257 12.287341
4898  3 0.0000  97.026444 42.602171 18.511061
4899  3 0.0000 108.888616 45.849085 24.734781
4900  3 0.0000 120.750788 49.095999 30.958500
4901  3 0.0000  39.637033  8.029273  6.063622
4902  3 0.0000  51.499205 11.276187 12.287341
4903  3 0.0000  63.361377 14.523101 18.511061
4904  3 0.0000  75.223549 17.770015 24.734781
4905  3 0.0000  87.085722 21.016929 30.958500
4906  3 0.0000  51.499206 15.049041  6.063622
4907  3 0.0000  63.361378 18.295954 12.287341
4908  3 0.0000  75.223550 21.542868 18.511061
4909  3 0.0000  87.085722 24.789782 24.734781
4910  3 0.0000  98.947894 28.036696 30.958500
4911  3 0.0000  63.361378 22.068808  6.063622
4912  3 0.0000  75.223550 25.315722 12.287341
4913  3 0.0000  87.085722 28.562636 18.511061
4914  3 0.0000  98.947895 31.809550 24.734781
4915  3 0.0000 110.810067 35.056464 30.958500
4916  3 0.0000  75.223551 29.088576  6.063622
4917  3 0.0000  87.085723 32.335490 12.287341
4918  3 0.0000  98.947895 35.582404 18.511061
4919  3 0.0000 110.810067 38.829318 24.734781
4920  3 0.0000 122.672239 42.076231 30.958500
4921  3 0.0000  87.085723 36.108343  6.063622
4922  3 0.0000  98.947895 39.355257 12.287341
4923  3 0.0000 110.810068 42.602171 18.511061
4924  3 0.0000 122.672240 45.849085 24.734781
4925  3 0.0000 134.534412 49.095999 30.958500
4926  3 0.0000  53.420656  8.029273  6.063622
4927  3 0.0000  65.282829 11.276187 12.287341
4928  3 0.0000  77.145001 14.523101 18.511061
4929  3 0.0000  89.007173 17.770015 24.734781
4930  3 0.0000 100.869345 21.016929 30.958500
4931  3 0.0000  65.282829 15.049041  6.063622
4932  3 0.0000  77.145001 18.295954 12.287341
4933  3 0.0000  89.007173 21.542868 18.511061
4934  3 0.0000 100.869345 24.789782 24.734781
4935  3 0.0000 112.731518 28.036696 30.958500
4936  3 0.0000  77.145002 22.068808  6.063622
4937  3 0.0000  89.007174 25.315722 12.287341
4938  3 0.0000 100.869346 28.562636 18.511061
4939  3 0.0000 112.731518 31.809550 24.734781
4940  3 0.0000 124.593690 35.056464 30.958500
4941  3 0.0000  89.007174 29.088576  6.063622
4942  3 0.0000 100.869346 32.335490 12.287341
4943  3 0.0000 112.731518 35.582404 18.511061
4944  3 0.0000 124.593691 38.829318 24.734781
4945  3 0.0000 136.455863 42.076231 30.958500
4946  3 0.0000 100.869347 36.108343  6.063622
4947  3 0.0000 112.731519 39.355257 12.287341
4948  3 0.0000 124.593691 42.602171 18.511061
4949  3 0.0000 136.455863 45.849085 24.734781
4950  3 0.0000 148.318035 49.095999 30.958500
4951  3 0.0000  67.204280  8.029273  6.063622
4952  3 0.0000  79.066452 11.276187 12.287341
4953  3 0.0000  90.928624 14.523101 18.511061
4954  3 0.0000 102.790796 17.770015 24.734781
4955  3 0.0000 114.652968 21.016929 30.958500
4956  3 0.0000  79.066453 15.049041  6.063622
4957  3 0.0000  90.928625 18.295954 12.287341
4958  3 0.0000 102.790797 21.542868 18.511061
4959  3 0.0000 114.652969 24.789782 24.734781
4960  3 0.0000 126.515141 28.036696 30.958500
4961  3 0.0000  90.928625 22.068808  6.063622
4962  3 0.0000 102.790797 25.315722 12.287341
4963  3 0.0000 114.652969 28.562636 18.511061
4964  3 0.0000 126.515141 31.809550 24.734781
4965  3 0.0000 138.377314 35.056464 30.958500
4966  3 0.0000 102.790798 29.088576  6.063622
4967  3 0.0000 114.652970 32.335490 12.287341
4968  3 0.0000 126.515142 35.582404 18.511061
4969  3 0.0000 138.377314 38.829318 24.734781
4970  3 0.0000 150.239486 42.076231 30.958500
4971  3 0.0000 114.652970 36.108343  6.063622
4972  3 0.0000 126.515142 39.355257 12.287341
4973  3 0.0000 138.377315 42.602171 18.511061
4974  3 0.0000 150.239487 45.849085 24.734781
4975  3 0.0000 162.101659 49.095999 30.958500
4976  3 0.0000  80.987903  8.029273  6.063622
4977  3 0.0000  92.850076 11.276187 12.287341
4978  3 0.0000 104.712248 14.523101 18.511061
4979  3 0.0000 116.574420 17.770015 24.734781
4980  3 0.0000 128.436592 21.016929 30.958500
4981  3 0.0000  92.850076 15.049041  6.063622
4982  3 0.0000 104.712248 18.295954 12.287341
4983  3 0.0000 116.574420 21.542868 18.511061
4984  3 0.0000 128.436592 24.789782 24.734781
4985  3 0.0000 140.298765 28.036696 30.958500
4986  3 0.0000 104.712249 22.068808  6.063622
4987  3 0.0000 116.574421 25.315722 12.287341
4988  3 0.0000 128.436593 28.562636 18.511061
4989  3 0.0000 140.298765 31.809550 24.734781
4990  3 0.0000 152.160937 35.056464 30.958500
4991  3 0.0000 116.574421 29.088576  6.063622
4992  3 0.0000 128.436593 32.335490 12.287341
4993  3 0.0000 140.298765 35.582404 18.511061
4994  3 0.0000 152.160938 38.829318 24.734781
4995  3 0.0000 164.023110 42.076231 30.958500
4996  3 0.0000 128.436594 36.108343  6.063622
4997  3 0.0000 140.298766 39.355257 12.287341
4998  3 0.0000 152.160938 42.602171 18.511061
4999  3 0.0000 164.023110 45.849085 24.734781
5000  3 0.0000 175.885282 49.095999 30.958500
5001  3 0.0000  26.338592  8.269978  2.742545
5002  3 0.0000  38.200764 11.516892  8.966265
5003  3 0.0000  50.062937 14.763806 15.189984
5004  3 0.0000  61.925109 18.010720 21.413704
5005  3 0.0000  73.787281 21.257633 27.637424
5006  3 0.0000  38.200765 15.289745  2.742545
5007  3 0.0000  50.062937 18.536659  8.966265
5008  3 0.0000  61.925109 21.783573 15.189984
5009  3 0.0000  73.787281 25.030487 21.413704
5010  3 0.0000  85.649453 28.277401 27.637424
5011  3 0.0000  50.062937 22.309513  2.742545
5012  3 0.0000  61.925110 25.556427  8.966265
5013  3 0.0000  73.787282 28.803341 15.189984
5014  3 0.0000  85.649454 32.050255 21.413704
5015  3 0.0000  97.511626 35.297169 27.637424
5016  3 0.0000  61.925110 29.329281  2.742545
5017  3 0.0000  73.787282 32.576195  8.966265
5018  3 0.0000  85.649454 35.823108 15.189984
5019  3 0.0000  97.511626 39.070022 21.413704
5020  3 0.0000 109.373799 42.316936 27.637424
5021  3 0.0000  73.787283 36.349048  2.742545
5022  3 0.0000  85.649455 39.595962  8.966265
5023  3 0.0000  97.511627 42.842876 15.189984
5024  3 0.0000 109.373799 46.089790 21.413704
5025  3 0.0000 121.235971 49.336704 27.637424
5026  3 0.0000  40.122216  8.269978  2.742545
5027  3 0.0000  51.984388 11.516892  8.966265
5028  3 0.0000  63.846560 14.763806 15.189984
5029  3 0.0000  75.708732 18.010720 21.413704
5030  3 0.0000  87.570904 21.257633 27.637424
5031  3 0.0000  51.984388 15.289745  2.742545
5032  3 0.0000  63.846560 18.536659  8.966265
5033  3 0.0000  75.708733 21.783573 15.189984
5034  3 0.0000  87.570905 25.030487 21.413704
5035  3 0.0000  99.433077 28.277401 27.637424
5036  3 0.0000  63.846561 22.309513  2.742545
5037  3 0.0000  75.708733 25.556427  8.966265
5038  3 0.0000  87.570905 28.803341 15.189984
5039  3 0.0000  99.433077 32.050255 21.413704
5040  3 0.0000 111.295249 35.297169 27.637424
5041  3 0.0000  75.708734 29.329281  2.742545
5042  3 0.0000  87.570906 32.576195  8.966265
5043  3 0.0000  99.433078 35.823108 15.189984
5044  3 0.0000 111.295250 39.070022 21.413704
5045  3 0.0000 123.157422 42.316936 27.637424
5046  3 0.0000  87.570906 36.349048  2.742545
5047  3 0.0000  99.433078 39.595962  8.966265
5048  3 0.0000 111.295250 42.842876 15.189984
5049  3 0.0000 123.157423 46.089790 21.413704
5050  3 0.0000 135.019595 49.336704 27.637424
5051  3 0.0000  53.905839  8.269978  2.742545
5052  3 0.0000  65.768011 11.516892  8.966265
5053  3 0.0000  77.630184 14.763806 15.189984
5054  3 0.0000  89.492356 18.010720 21.413704
5055  3 0.0000 101.354528 21.257633 27.637424
5056  3 0.0000  65.768012 15.289745  2.742545
5057  3 0.0000  77.630184 18.536659  8.966265
5058  3 0.0000  89.492356 21.783573 15.189984
5059  3 0.0000 101.354528 25.030487 21.413704
5060  3 0.0000 113.216700 28.277401 27.637424
5061  3 0.0000  77.630184 22.309513  2.742545
5062  3 0.0000  89.492357 25.556427  8.966265
5063  3 0.0000 101.354529 28.803341 15.189984
5064  3 0.0000 113.216701 32.050255 21.413704
5065  3 0.0000 125.078873 35.297169 27.637424
5066  3 0.0000  89.492357 29.329281  2.742545
5067  3 0.0000 101.354529 32.576195  8.966265
5068  3 0.0000 113.216701 35.823108 15.189984
5069  3 0.0000 125.078873 39.070022 21.413704
5070  3 0.0000 136.941046 42.316936 27.637424
5071  3 0.0000 101.354530 36.349048  2.742545
5072  3 0.0000 113.216702 39.595962  8.966265
5073  3 0.0000 125.078874 42.842876 15.189984
5074  3 0.0000 136.941046 46.089790 21.413704
5075  3 0.0000 148.803218 49.336704 27.637424
5076  3 0.0000  67.689463  8.269978  2.742545
5077  3 0.0000  79.551635 11.516892  8.966265
5078  3 0.0000  91.413807 14.763806 15.189984
5079  3 0.0000 103.275979 18.010720 21.413704
5080  3 0.0000 115.138151 21.257633 27.637424
5081  3 0.0000  79.551635 15.289745  2.742545
5082  3 0.0000  91.413807 18.536659  8.966265
5083  3 0.0000 103.275980 21.783573 15.189984
5084  3 0.0000 115.138152 25.030487 21.413704
5085  3 0.0000 127.000324 28.277401 27.637424
5086  3 0.0000  91.413808 22.309513  2.742545
5087  3 0.0000 103.275980 25.556427  8.966265
5088  3 0.0000 115.138152 28.803341 15.189984
5089  3 0.0000 127.000324 32.050255 21.413704
5090  3 0.0000 138.862496 35.297169 27.637424
5091  3 0.0000 103.275980 29.329281  2.742545
5092  3 0.0000 115.138153 32.576195  8.966265
5093  3 0.0000 127.000325 35.823108 15.189984
5094  3 0.0000 138.862497 39.070022 21.413704
5095  3 0.0000 150.724669 42.316936 27.637424
5096  3 0.0000 115.138153 36.349048  2.742545
5097  3 0.0000 127.000325 39.595962  8.966265
5098  3 0.0000 138.862497 42.842876 15.189984
5099  3 0.0000 150.724669 46.089790 21.413704
5100  3 0.0000 162.586842 49.336704 27.637424
5101  3 0.0000  81.473086  8.269978  2.742545
5102  3 0.0000  93.335258 11.516892  8.966265
5103  3 0.0000 105.197430 14.763806 15.189984
5104  3 0.0000 117.059603 18.010720 21.413704
5105  3 0.0000 128.921775 21.257633 27.637424
5106  3 0.0000  93.335259 15.289745  2.742545
5107  3 0.0000 105.197431 18.536659  8.966265
5108  3 0.0000 117.059603 21.783573 15.189984
5109  3 0.0000 128.921775 25.030487 21.413704
5110  3 0.0000 140.783947 28.277401 27.637424
5111  3 0.0000 105.197431 22.309513  2.742545
5112  3 0.0000 117.059603 25.556427  8.966265
5113  3 0.0000 128.921776 28.803341 15.189984
5114  3 0.0000 140.783948 32.050255 21.413704
5115  3 0.0000 152.646120 35.297169 27.637424
5116  3 0.0000 117.059604 29.329281  2.742545
5117  3 0.0000 128.921776 32.576195  8.966265
5118  3 0.0000 140.783948 35.823108 15.189984
5119  3 0.0000 152.646120 39.070022 21.413704
5120  3 0.0000 164.508292 42.316936 27.637424
5121  3 0.0000 128.921777 36.349048  2.742545
5122  3 0.0000 140.783949 39.595962  8.966265
5123  3 0.0000 152.646121 42.842876 15.189984
5124  3 0.0000 164.508293 46.089790 21.413704
5125  3 0.0000 176.370465 49.336704 27.637424
5126  3 0.0000  26.878727  5.343990  4.314087
5127  3 0.0000  38.740899  8.590904 10.537806
5128  3 0.0000  50.603071 11.837818 16.761526
5129  3 0.0000  62.465243 15.084732 22.985246
5130  3 0.0000  74.327415 18.331646 29.208965
5131  3 0.0000  38.740899 12.363758  4.314087
5132  3 0.0000  50.603071 15.610672 10.537806
5133  3 0.0000  62.465244 18.857586 16.761526
5134  3 0.0000  74.327416 22.104500 22.985246
5135  3 0.0000  86.189588 25.351413 29.208965
5136  3 0.0000  50.603072 19.383525  4.314087
5137  3 0.0000  62.465244 22.630439 10.537806
5138  3 0.0000  74.327416 25.877353 16.761526
5139  3 0.0000  86.189588 29.124267 22.985246
5140  3 0.0000  98.051760 32.371181 29.208965
5141  3 0.0000  62.465244 26.403293  4.314087
5142  3 0.0000  74.327417 29.650207 10.537806
5143  3 0.0000  86.189589 32.897121 16.761526
5144  3 0.0000  98.051761 36.144035 22.985246
5145  3 0.0000 109.913933 39.390949 29.208965
5146  3 0.0000  74.327417 33.423061  4.314087
5147  3 0.0000  86.189589 36.669975 10.537806
5148  3 0.0000  98.051761 39.916889 16.761526
5149  3 0.0000 109.913933 43.163802 22.985246
5150  3 0.0000 121.776106 46.410716 29.208965
5151  3 0.0000  40.662350  5.343990  4.314087
5152  3 0.0000  52.524522  8.590904 10.537806
5153  3 0.0000  64.386694 11.837818 16.761526
5154  3 0.0000  76.248867 15.084732 22.985246
5155  3 0.0000  88.111039 18.331646 29.208965
5156  3 0.0000  52.524523 12.363758  4.314087
5157  3 0.0000  64.386695 15.610672 10.537806
5158  3 0.0000  76.248867 18.857586 16.761526
5159  3 0.0000  88.111039 22.104500 22.985246
5160  3 0.0000  99.973211 25.351413 29.208965
5161  3 0.0000  64.386695 19.383525  4.314087
5162  3 0.0000  76.248867 22.630439 10.537806
5163  3 0.0000  88.111040 25.877353 16.761526
5164  3 0.0000  99.973212 29.124267 22.985246
5165  3 0.0000 111.835384 32.371181 29.208965
5166  3 0.0000  76.248868 26.403293  4.314087
5167  3 0.0000  88.111040 29.650207 10.537806
5168  3 0.0000  99.973212 32.897121 16.761526
5169  3 0.0000 111.835384 36.144035 22.985246
5170  3 0.0000 123.697556 39.390949 29.208965
5171  3 0.0000  88.111040 33.423061  4.314087
5172  3 0.0000  99.973213 36.669975 10.537806
5173  3 0.0000 111.835385 39.916889 16.761526
5174  3 0.0000 123.697557 43.163802 22.985246
5175  3 0.0000 135.559729 46.410716 29.208965
5176  3 0.0000  54.445974  5.343990  4.314087
5177  3 0.0000  66.308146  8.590904 10.537806
5178  3 0.0000  78.170318 11.837818 16.761526
5179  3 0.0000  90.032490 15.084732 22.985246
5180  3 0.0000 101.894662 18.331646 29.208965
5181  3 0.0000  66.308146 12.363758  4.314087
5182  3 0.0000  78.170318 15.610672 10.537806
5183  3 0.0000  90.032490 18.857586 16.761526
5184  3 0.0000 101.894663 22.104500 22.985246
5185  3 0.0000 113.756835 25.351413 29.208965
5186  3 0.0000  78.170319 19.383525  4.314087
5187  3 0.0000  90.032491 22.630439 10.537806
5188  3 0.0000 101.894663 25.877353 16.761526
5189  3 0.0000 113.756835 29.124267 22.985246
5190  3 0.0000 125.619007 32.371181 29.208965
5191  3 0.0000  90.032491 26.403293  4.314087
5192  3 0.0000 101.894664 29.650207 10.537806
5193  3 0.0000 113.756836 32.897121 16.761526
5194  3 0.0000 125.619008 36.144035 22.985246
5195  3 0.0000 137.481180 39.390949 29.208965
5196  3 0.0000 101.894664 33.423061  4.314087
5197  3 0.0000 113.756836 36.669975 10.537806
5198  3 0.0000 125.619008 39.916889 16.761526
5199  3 0.0000 137.481180 43.163802 22.985246
5200  3 0.0000 149.343353 46.410716 29.208965
5201  3 0.0000  68.229597  5.343990  4.314087
5202  3 0.0000  80.091769  8.590904 10.537806
5203  3 0.0000  91.953941 11.837818 16.761526
5204  3 0.0000 103.816114 15.084732 22.985246
5205  3 0.0000 115.678286 18.331646 29.208965
5206  3 0.0000  80.091770 12.363758  4.314087
5207  3 0.0000  91.953942 15.610672 10.537806
5208  3 0.0000 103.816114 18.857586 16.761526
5209  3 0.0000 115.678286 22.104500 22.985246
5210  3 0.0000 127.540458 25.351413 29.208965
5211  3 0.0000  91.953942 19.383525  4.314087
5212  3 0.0000 103.816114 22.630439 10.537806
5213  3 0.0000 115.678287 25.877353 16.761526
5214  3 0.0000 127.540459 29.124267 22.985246
5215  3 0.0000 139.402631 32.371181 29.208965
5216  3 0.0000 103.816115 26.403293  4.314087
5217  3 0.0000 115.678287 29.650207 10.537806
5218  3 0.0000 127.540459 32.897121 16.761526
5219  3 0.0000 139.402631 36.144035 22.985246
5220  3 0.0000 151.264803 39.390949 29.208965
5221  3 0.0000 115.678287 33.423061  4.314087
5222  3 0.0000 127.540460 36.669975 10.537806
5223  3 0.0000 139.402632 39.916889 16.761526
5224  3 0.0000 151.264804 43.163802 22.985246
5225  3 0.0000 163.126976 46.410716 29.208965
5226  3 0.0000  82.013221  5.343990  4.314087
5227  3 0.0000  93.875393  8.590904 10.537806
5228  3 0.0000 105.737565 11.837818 16.761526
5229  3 0.0000 117.599737 15.084732 22.985246
5230  3 0.0000 129.461909 18.331646 29.208965
5231  3 0.0000  93.875393 12.363758  4.314087
5232  3 0.0000 105.737565 15.610672 10.537806
5233  3 0.0000 117.599737 18.857586 16.761526
5234  3 0.0000 129.461910 22.104500 22.985246
5235  3 0.0000 141.324082 25.351413 29.208965
5236  3 0.0000 105.737566 19.383525  4.314087
5237  3 0.0000 117.599738 22.630439 10.537806
5238  3 0.0000 129.461910 25.877353 16.761526
5239  3 0.0000 141.324082 29.124267 22.985246
5240  3 0.0000 153.186254 32.371181 29.208965
5241  3 0.0000 117.599738 26.403293  4.314087
5242  3 0.0000 129.461910 29.650207 10.537806
5243  3 0.0000 141.324083 32.897121 16.761526
5244  3 0.0000 153.186255 36.144035 22.985246
5245  3 0.0000 165.048427 39.390949 29.208965
5246  3 0.0000 129.461911 33.423061  4.314087
5247  3 0.0000 141.324083 36.669975 10.537806
5248  3 0.0000 153.186255 39.916889 16.761526
5249  3 0.0000 165.048427 43.163802 22.985246
5250  3 0.0000 176.910599 46.410716 29.208965

