Generated by pymatgen.io.lammps.data.LammpsData

1080  atoms

   3  atom types

0.000000 23.942275  xlo xhi
0.000000 23.942275  ylo yhi
0.000000 24.615932  zlo zhi

Masses

1  137.3270
2   47.8670
3   15.9994

Atoms

1     1 0.0000  1.995190  1.995190  2.389967
2     1 0.0000  1.995190  1.995190  6.492622
3     1 0.0000  1.995190  1.995190 10.595278
4     1 0.0000  1.995190  1.995190 14.697933
5     1 0.0000  1.995190  1.995190 18.800588
6     1 0.0000  1.995190  1.995190 22.903244
7     1 0.0000  1.995190  5.985569  2.389967
8     1 0.0000  1.995190  5.985569  6.492622
9     1 0.0000  1.995190  5.985569 10.595278
10    1 0.0000  1.995190  5.985569 14.697933
11    1 0.0000  1.995190  5.985569 18.800588
12    1 0.0000  1.995190  5.985569 22.903244
13    1 0.0000  1.995190  9.975948  2.389967
14    1 0.0000  1.995190  9.975948  6.492622
15    1 0.0000  1.995190  9.975948 10.595278
16    1 0.0000  1.995190  9.975948 14.697933
17    1 0.0000  1.995190  9.975948 18.800588
18    1 0.0000  1.995190  9.975948 22.903244
19    1 0.0000  1.995190 13.966327  2.389967
20    1 0.0000  1.995190 13.966327  6.492622
21    1 0.0000  1.995190 13.966327 10.595278
22    1 0.0000  1.995190 13.966327 14.697933
23    1 0.0000  1.995190 13.966327 18.800588
24    1 0.0000  1.995190 13.966327 22.903244
25    1 0.0000  1.995190 17.956706  2.389967
26    1 0.0000  1.995190 17.956706  6.492622
27    1 0.0000  1.995190 17.956706 10.595278
28    1 0.0000  1.995190 17.956706 14.697933
29    1 0.0000  1.995190 17.956706 18.800588
30    1 0.0000  1.995190 17.956706 22.903244
31    1 0.0000  1.995190 21.947086  2.389967
32    1 0.0000  1.995190 21.947086  6.492622
33    1 0.0000  1.995190 21.947086 10.595278
34    1 0.0000  1.995190 21.947086 14.697933
35    1 0.0000  1.995190 21.947086 18.800588
36    1 0.0000  1.995190 21.947086 22.903244
37    1 0.0000  5.985569  1.995190  2.389967
38    1 0.0000  5.985569  1.995190  6.492622
39    1 0.0000  5.985569  1.995190 10.595278
40    1 0.0000  5.985569  1.995190 14.697933
41    1 0.0000  5.985569  1.995190 18.800588
42    1 0.0000  5.985569  1.995190 22.903244
43    1 0.0000  5.985569  5.985569  2.389967
44    1 0.0000  5.985569  5.985569  6.492622
45    1 0.0000  5.985569  5.985569 10.595278
46    1 0.0000  5.985569  5.985569 14.697933
47    1 0.0000  5.985569  5.985569 18.800588
48    1 0.0000  5.985569  5.985569 22.903244
49    1 0.0000  5.985569  9.975948  2.389967
50    1 0.0000  5.985569  9.975948  6.492622
51    1 0.0000  5.985569  9.975948 10.595278
52    1 0.0000  5.985569  9.975948 14.697933
53    1 0.0000  5.985569  9.975948 18.800588
54    1 0.0000  5.985569  9.975948 22.903244
55    1 0.0000  5.985569 13.966327  2.389967
56    1 0.0000  5.985569 13.966327  6.492622
57    1 0.0000  5.985569 13.966327 10.595278
58    1 0.0000  5.985569 13.966327 14.697933
59    1 0.0000  5.985569 13.966327 18.800588
60    1 0.0000  5.985569 13.966327 22.903244
61    1 0.0000  5.985569 17.956706  2.389967
62    1 0.0000  5.985569 17.956706  6.492622
63    1 0.0000  5.985569 17.956706 10.595278
64    1 0.0000  5.985569 17.956706 14.697933
65    1 0.0000  5.985569 17.956706 18.800588
66    1 0.0000  5.985569 17.956706 22.903244
67    1 0.0000  5.985569 21.947086  2.389967
68    1 0.0000  5.985569 21.947086  6.492622
69    1 0.0000  5.985569 21.947086 10.595278
70    1 0.0000  5.985569 21.947086 14.697933
71    1 0.0000  5.985569 21.947086 18.800588
72    1 0.0000  5.985569 21.947086 22.903244
73    1 0.0000  9.975948  1.995190  2.389967
74    1 0.0000  9.975948  1.995190  6.492622
75    1 0.0000  9.975948  1.995190 10.595278
76    1 0.0000  9.975948  1.995190 14.697933
77    1 0.0000  9.975948  1.995190 18.800588
78    1 0.0000  9.975948  1.995190 22.903244
79    1 0.0000  9.975948  5.985569  2.389967
80    1 0.0000  9.975948  5.985569  6.492622
81    1 0.0000  9.975948  5.985569 10.595278
82    1 0.0000  9.975948  5.985569 14.697933
83    1 0.0000  9.975948  5.985569 18.800588
84    1 0.0000  9.975948  5.985569 22.903244
85    1 0.0000  9.975948  9.975948  2.389967
86    1 0.0000  9.975948  9.975948  6.492622
87    1 0.0000  9.975948  9.975948 10.595278
88    1 0.0000  9.975948  9.975948 14.697933
89    1 0.0000  9.975948  9.975948 18.800588
90    1 0.0000  9.975948  9.975948 22.903244
91    1 0.0000  9.975948 13.966327  2.389967
92    1 0.0000  9.975948 13.966327  6.492622
93    1 0.0000  9.975948 13.966327 10.595278
94    1 0.0000  9.975948 13.966327 14.697933
95    1 0.0000  9.975948 13.966327 18.800588
96    1 0.0000  9.975948 13.966327 22.903244
97    1 0.0000  9.975948 17.956706  2.389967
98    1 0.0000  9.975948 17.956706  6.492622
99    1 0.0000  9.975948 17.956706 10.595278
100   1 0.0000  9.975948 17.956706 14.697933
101   1 0.0000  9.975948 17.956706 18.800588
102   1 0.0000  9.975948 17.956706 22.903244
103   1 0.0000  9.975948 21.947086  2.389967
104   1 0.0000  9.975948 21.947086  6.492622
105   1 0.0000  9.975948 21.947086 10.595278
106   1 0.0000  9.975948 21.947086 14.697933
107   1 0.0000  9.975948 21.947086 18.800588
108   1 0.0000  9.975948 21.947086 22.903244
109   1 0.0000 13.966327  1.995190  2.389967
110   1 0.0000 13.966327  1.995190  6.492622
111   1 0.0000 13.966327  1.995190 10.595278
112   1 0.0000 13.966327  1.995190 14.697933
113   1 0.0000 13.966327  1.995190 18.800588
114   1 0.0000 13.966327  1.995190 22.903244
115   1 0.0000 13.966327  5.985569  2.389967
116   1 0.0000 13.966327  5.985569  6.492622
117   1 0.0000 13.966327  5.985569 10.595278
118   1 0.0000 13.966327  5.985569 14.697933
119   1 0.0000 13.966327  5.985569 18.800588
120   1 0.0000 13.966327  5.985569 22.903244
121   1 0.0000 13.966327  9.975948  2.389967
122   1 0.0000 13.966327  9.975948  6.492622
123   1 0.0000 13.966327  9.975948 10.595278
124   1 0.0000 13.966327  9.975948 14.697933
125   1 0.0000 13.966327  9.975948 18.800588
126   1 0.0000 13.966327  9.975948 22.903244
127   1 0.0000 13.966327 13.966327  2.389967
128   1 0.0000 13.966327 13.966327  6.492622
129   1 0.0000 13.966327 13.966327 10.595278
130   1 0.0000 13.966327 13.966327 14.697933
131   1 0.0000 13.966327 13.966327 18.800588
132   1 0.0000 13.966327 13.966327 22.903244
133   1 0.0000 13.966327 17.956706  2.389967
134   1 0.0000 13.966327 17.956706  6.492622
135   1 0.0000 13.966327 17.956706 10.595278
136   1 0.0000 13.966327 17.956706 14.697933
137   1 0.0000 13.966327 17.956706 18.800588
138   1 0.0000 13.966327 17.956706 22.903244
139   1 0.0000 13.966327 21.947086  2.389967
140   1 0.0000 13.966327 21.947086  6.492622
141   1 0.0000 13.966327 21.947086 10.595278
142   1 0.0000 13.966327 21.947086 14.697933
143   1 0.0000 13.966327 21.947086 18.800588
144   1 0.0000 13.966327 21.947086 22.903244
145   1 0.0000 17.956706  1.995190  2.389967
146   1 0.0000 17.956706  1.995190  6.492622
147   1 0.0000 17.956706  1.995190 10.595278
148   1 0.0000 17.956706  1.995190 14.697933
149   1 0.0000 17.956706  1.995190 18.800588
150   1 0.0000 17.956706  1.995190 22.903244
151   1 0.0000 17.956706  5.985569  2.389967
152   1 0.0000 17.956706  5.985569  6.492622
153   1 0.0000 17.956706  5.985569 10.595278
154   1 0.0000 17.956706  5.985569 14.697933
155   1 0.0000 17.956706  5.985569 18.800588
156   1 0.0000 17.956706  5.985569 22.903244
157   1 0.0000 17.956706  9.975948  2.389967
158   1 0.0000 17.956706  9.975948  6.492622
159   1 0.0000 17.956706  9.975948 10.595278
160   1 0.0000 17.956706  9.975948 14.697933
161   1 0.0000 17.956706  9.975948 18.800588
162   1 0.0000 17.956706  9.975948 22.903244
163   1 0.0000 17.956706 13.966327  2.389967
164   1 0.0000 17.956706 13.966327  6.492622
165   1 0.0000 17.956706 13.966327 10.595278
166   1 0.0000 17.956706 13.966327 14.697933
167   1 0.0000 17.956706 13.966327 18.800588
168   1 0.0000 17.956706 13.966327 22.903244
169   1 0.0000 17.956706 17.956706  2.389967
170   1 0.0000 17.956706 17.956706  6.492622
171   1 0.0000 17.956706 17.956706 10.595278
172   1 0.0000 17.956706 17.956706 14.697933
173   1 0.0000 17.956706 17.956706 18.800588
174   1 0.0000 17.956706 17.956706 22.903244
175   1 0.0000 17.956706 21.947086  2.389967
176   1 0.0000 17.956706 21.947086  6.492622
177   1 0.0000 17.956706 21.947086 10.595278
178   1 0.0000 17.956706 21.947086 14.697933
179   1 0.0000 17.956706 21.947086 18.800588
180   1 0.0000 17.956706 21.947086 22.903244
181   1 0.0000 21.947086  1.995190  2.389967
182   1 0.0000 21.947086  1.995190  6.492622
183   1 0.0000 21.947086  1.995190 10.595278
184   1 0.0000 21.947086  1.995190 14.697933
185   1 0.0000 21.947086  1.995190 18.800588
186   1 0.0000 21.947086  1.995190 22.903244
187   1 0.0000 21.947086  5.985569  2.389967
188   1 0.0000 21.947086  5.985569  6.492622
189   1 0.0000 21.947086  5.985569 10.595278
190   1 0.0000 21.947086  5.985569 14.697933
191   1 0.0000 21.947086  5.985569 18.800588
192   1 0.0000 21.947086  5.985569 22.903244
193   1 0.0000 21.947086  9.975948  2.389967
194   1 0.0000 21.947086  9.975948  6.492622
195   1 0.0000 21.947086  9.975948 10.595278
196   1 0.0000 21.947086  9.975948 14.697933
197   1 0.0000 21.947086  9.975948 18.800588
198   1 0.0000 21.947086  9.975948 22.903244
199   1 0.0000 21.947086 13.966327  2.389967
200   1 0.0000 21.947086 13.966327  6.492622
201   1 0.0000 21.947086 13.966327 10.595278
202   1 0.0000 21.947086 13.966327 14.697933
203   1 0.0000 21.947086 13.966327 18.800588
204   1 0.0000 21.947086 13.966327 22.903244
205   1 0.0000 21.947086 17.956706  2.389967
206   1 0.0000 21.947086 17.956706  6.492622
207   1 0.0000 21.947086 17.956706 10.595278
208   1 0.0000 21.947086 17.956706 14.697933
209   1 0.0000 21.947086 17.956706 18.800588
210   1 0.0000 21.947086 17.956706 22.903244
211   1 0.0000 21.947086 21.947086  2.389967
212   1 0.0000 21.947086 21.947086  6.492622
213   1 0.0000 21.947086 21.947086 10.595278
214   1 0.0000 21.947086 21.947086 14.697933
215   1 0.0000 21.947086 21.947086 18.800588
216   1 0.0000 21.947086 21.947086 22.903244
217   2 0.0000  0.000000  0.000000  0.410441
218   2 0.0000  0.000000  0.000000  4.513096
219   2 0.0000  0.000000  0.000000  8.615752
220   2 0.0000  0.000000  0.000000 12.718407
221   2 0.0000  0.000000  0.000000 16.821062
222   2 0.0000  0.000000  0.000000 20.923718
223   2 0.0000  0.000000  3.990379  0.410441
224   2 0.0000  0.000000  3.990379  4.513096
225   2 0.0000  0.000000  3.990379  8.615752
226   2 0.0000  0.000000  3.990379 12.718407
227   2 0.0000  0.000000  3.990379 16.821062
228   2 0.0000  0.000000  3.990379 20.923718
229   2 0.0000  0.000000  7.980758  0.410441
230   2 0.0000  0.000000  7.980758  4.513096
231   2 0.0000  0.000000  7.980758  8.615752
232   2 0.0000  0.000000  7.980758 12.718407
233   2 0.0000  0.000000  7.980758 16.821062
234   2 0.0000  0.000000  7.980758 20.923718
235   2 0.0000  0.000000 11.971138  0.410441
236   2 0.0000  0.000000 11.971138  4.513096
237   2 0.0000  0.000000 11.971138  8.615752
238   2 0.0000  0.000000 11.971138 12.718407
239   2 0.0000  0.000000 11.971138 16.821062
240   2 0.0000  0.000000 11.971138 20.923718
241   2 0.0000  0.000000 15.961517  0.410441
242   2 0.0000  0.000000 15.961517  4.513096
243   2 0.0000  0.000000 15.961517  8.615752
244   2 0.0000  0.000000 15.961517 12.718407
245   2 0.0000  0.000000 15.961517 16.821062
246   2 0.0000  0.000000 15.961517 20.923718
247   2 0.0000  0.000000 19.951896  0.410441
248   2 0.0000  0.000000 19.951896  4.513096
249   2 0.0000  0.000000 19.951896  8.615752
250   2 0.0000  0.000000 19.951896 12.718407
251   2 0.0000  0.000000 19.951896 16.821062
252   2 0.0000  0.000000 19.951896 20.923718
253   2 0.0000  3.990379  0.000000  0.410441
254   2 0.0000  3.990379  0.000000  4.513096
255   2 0.0000  3.990379  0.000000  8.615752
256   2 0.0000  3.990379  0.000000 12.718407
257   2 0.0000  3.990379  0.000000 16.821062
258   2 0.0000  3.990379  0.000000 20.923718
259   2 0.0000  3.990379  3.990379  0.410441
260   2 0.0000  3.990379  3.990379  4.513096
261   2 0.0000  3.990379  3.990379  8.615752
262   2 0.0000  3.990379  3.990379 12.718407
263   2 0.0000  3.990379  3.990379 16.821062
264   2 0.0000  3.990379  3.990379 20.923718
265   2 0.0000  3.990379  7.980758  0.410441
266   2 0.0000  3.990379  7.980758  4.513096
267   2 0.0000  3.990379  7.980758  8.615752
268   2 0.0000  3.990379  7.980758 12.718407
269   2 0.0000  3.990379  7.980758 16.821062
270   2 0.0000  3.990379  7.980758 20.923718
271   2 0.0000  3.990379 11.971138  0.410441
272   2 0.0000  3.990379 11.971138  4.513096
273   2 0.0000  3.990379 11.971138  8.615752
274   2 0.0000  3.990379 11.971138 12.718407
275   2 0.0000  3.990379 11.971138 16.821062
276   2 0.0000  3.990379 11.971138 20.923718
277   2 0.0000  3.990379 15.961517  0.410441
278   2 0.0000  3.990379 15.961517  4.513096
279   2 0.0000  3.990379 15.961517  8.615752
280   2 0.0000  3.990379 15.961517 12.718407
281   2 0.0000  3.990379 15.961517 16.821062
282   2 0.0000  3.990379 15.961517 20.923718
283   2 0.0000  3.990379 19.951896  0.410441
284   2 0.0000  3.990379 19.951896  4.513096
285   2 0.0000  3.990379 19.951896  8.615752
286   2 0.0000  3.990379 19.951896 12.718407
287   2 0.0000  3.990379 19.951896 16.821062
288   2 0.0000  3.990379 19.951896 20.923718
289   2 0.0000  7.980758  0.000000  0.410441
290   2 0.0000  7.980758  0.000000  4.513096
291   2 0.0000  7.980758  0.000000  8.615752
292   2 0.0000  7.980758  0.000000 12.718407
293   2 0.0000  7.980758  0.000000 16.821062
294   2 0.0000  7.980758  0.000000 20.923718
295   2 0.0000  7.980758  3.990379  0.410441
296   2 0.0000  7.980758  3.990379  4.513096
297   2 0.0000  7.980758  3.990379  8.615752
298   2 0.0000  7.980758  3.990379 12.718407
299   2 0.0000  7.980758  3.990379 16.821062
300   2 0.0000  7.980758  3.990379 20.923718
301   2 0.0000  7.980758  7.980758  0.410441
302   2 0.0000  7.980758  7.980758  4.513096
303   2 0.0000  7.980758  7.980758  8.615752
304   2 0.0000  7.980758  7.980758 12.718407
305   2 0.0000  7.980758  7.980758 16.821062
306   2 0.0000  7.980758  7.980758 20.923718
307   2 0.0000  7.980758 11.971138  0.410441
308   2 0.0000  7.980758 11.971138  4.513096
309   2 0.0000  7.980758 11.971138  8.615752
310   2 0.0000  7.980758 11.971138 12.718407
311   2 0.0000  7.980758 11.971138 16.821062
312   2 0.0000  7.980758 11.971138 20.923718
313   2 0.0000  7.980758 15.961517  0.410441
314   2 0.0000  7.980758 15.961517  4.513096
315   2 0.0000  7.980758 15.961517  8.615752
316   2 0.0000  7.980758 15.961517 12.718407
317   2 0.0000  7.980758 15.961517 16.821062
318   2 0.0000  7.980758 15.961517 20.923718
319   2 0.0000  7.980758 19.951896  0.410441
320   2 0.0000  7.980758 19.951896  4.513096
321   2 0.0000  7.980758 19.951896  8.615752
322   2 0.0000  7.980758 19.951896 12.718407
323   2 0.0000  7.980758 19.951896 16.821062
324   2 0.0000  7.980758 19.951896 20.923718
325   2 0.0000 11.971138  0.000000  0.410441
326   2 0.0000 11.971138  0.000000  4.513096
327   2 0.0000 11.971138  0.000000  8.615752
328   2 0.0000 11.971138  0.000000 12.718407
329   2 0.0000 11.971138  0.000000 16.821062
330   2 0.0000 11.971138  0.000000 20.923718
331   2 0.0000 11.971138  3.990379  0.410441
332   2 0.0000 11.971138  3.990379  4.513096
333   2 0.0000 11.971138  3.990379  8.615752
334   2 0.0000 11.971138  3.990379 12.718407
335   2 0.0000 11.971138  3.990379 16.821062
336   2 0.0000 11.971138  3.990379 20.923718
337   2 0.0000 11.971138  7.980758  0.410441
338   2 0.0000 11.971138  7.980758  4.513096
339   2 0.0000 11.971138  7.980758  8.615752
340   2 0.0000 11.971138  7.980758 12.718407
341   2 0.0000 11.971138  7.980758 16.821062
342   2 0.0000 11.971138  7.980758 20.923718
343   2 0.0000 11.971138 11.971138  0.410441
344   2 0.0000 11.971138 11.971138  4.513096
345   2 0.0000 11.971138 11.971138  8.615752
346   2 0.0000 11.971138 11.971138 12.718407
347   2 0.0000 11.971138 11.971138 16.821062
348   2 0.0000 11.971138 11.971138 20.923718
349   2 0.0000 11.971138 15.961517  0.410441
350   2 0.0000 11.971138 15.961517  4.513096
351   2 0.0000 11.971138 15.961517  8.615752
352   2 0.0000 11.971138 15.961517 12.718407
353   2 0.0000 11.971138 15.961517 16.821062
354   2 0.0000 11.971138 15.961517 20.923718
355   2 0.0000 11.971138 19.951896  0.410441
356   2 0.0000 11.971138 19.951896  4.513096
357   2 0.0000 11.971138 19.951896  8.615752
358   2 0.0000 11.971138 19.951896 12.718407
359   2 0.0000 11.971138 19.951896 16.821062
360   2 0.0000 11.971138 19.951896 20.923718
361   2 0.0000 15.961517  0.000000  0.410441
362   2 0.0000 15.961517  0.000000  4.513096
363   2 0.0000 15.961517  0.000000  8.615752
364   2 0.0000 15.961517  0.000000 12.718407
365   2 0.0000 15.961517  0.000000 16.821062
366   2 0.0000 15.961517  0.000000 20.923718
367   2 0.0000 15.961517  3.990379  0.410441
368   2 0.0000 15.961517  3.990379  4.513096
369   2 0.0000 15.961517  3.990379  8.615752
370   2 0.0000 15.961517  3.990379 12.718407
371   2 0.0000 15.961517  3.990379 16.821062
372   2 0.0000 15.961517  3.990379 20.923718
373   2 0.0000 15.961517  7.980758  0.410441
374   2 0.0000 15.961517  7.980758  4.513096
375   2 0.0000 15.961517  7.980758  8.615752
376   2 0.0000 15.961517  7.980758 12.718407
377   2 0.0000 15.961517  7.980758 16.821062
378   2 0.0000 15.961517  7.980758 20.923718
379   2 0.0000 15.961517 11.971138  0.410441
380   2 0.0000 15.961517 11.971138  4.513096
381   2 0.0000 15.961517 11.971138  8.615752
382   2 0.0000 15.961517 11.971138 12.718407
383   2 0.0000 15.961517 11.971138 16.821062
384   2 0.0000 15.961517 11.971138 20.923718
385   2 0.0000 15.961517 15.961517  0.410441
386   2 0.0000 15.961517 15.961517  4.513096
387   2 0.0000 15.961517 15.961517  8.615752
388   2 0.0000 15.961517 15.961517 12.718407
389   2 0.0000 15.961517 15.961517 16.821062
390   2 0.0000 15.961517 15.961517 20.923718
391   2 0.0000 15.961517 19.951896  0.410441
392   2 0.0000 15.961517 19.951896  4.513096
393   2 0.0000 15.961517 19.951896  8.615752
394   2 0.0000 15.961517 19.951896 12.718407
395   2 0.0000 15.961517 19.951896 16.821062
396   2 0.0000 15.961517 19.951896 20.923718
397   2 0.0000 19.951896  0.000000  0.410441
398   2 0.0000 19.951896  0.000000  4.513096
399   2 0.0000 19.951896  0.000000  8.615752
400   2 0.0000 19.951896  0.000000 12.718407
401   2 0.0000 19.951896  0.000000 16.821062
402   2 0.0000 19.951896  0.000000 20.923718
403   2 0.0000 19.951896  3.990379  0.410441
404   2 0.0000 19.951896  3.990379  4.513096
405   2 0.0000 19.951896  3.990379  8.615752
406   2 0.0000 19.951896  3.990379 12.718407
407   2 0.0000 19.951896  3.990379 16.821062
408   2 0.0000 19.951896  3.990379 20.923718
409   2 0.0000 19.951896  7.980758  0.410441
410   2 0.0000 19.951896  7.980758  4.513096
411   2 0.0000 19.951896  7.980758  8.615752
412   2 0.0000 19.951896  7.980758 12.718407
413   2 0.0000 19.951896  7.980758 16.821062
414   2 0.0000 19.951896  7.980758 20.923718
415   2 0.0000 19.951896 11.971138  0.410441
416   2 0.0000 19.951896 11.971138  4.513096
417   2 0.0000 19.951896 11.971138  8.615752
418   2 0.0000 19.951896 11.971138 12.718407
419   2 0.0000 19.951896 11.971138 16.821062
420   2 0.0000 19.951896 11.971138 20.923718
421   2 0.0000 19.951896 15.961517  0.410441
422   2 0.0000 19.951896 15.961517  4.513096
423   2 0.0000 19.951896 15.961517  8.615752
424   2 0.0000 19.951896 15.961517 12.718407
425   2 0.0000 19.951896 15.961517 16.821062
426   2 0.0000 19.951896 15.961517 20.923718
427   2 0.0000 19.951896 19.951896  0.410441
428   2 0.0000 19.951896 19.951896  4.513096
429   2 0.0000 19.951896 19.951896  8.615752
430   2 0.0000 19.951896 19.951896 12.718407
431   2 0.0000 19.951896 19.951896 16.821062
432   2 0.0000 19.951896 19.951896 20.923718
433   3 0.0000  0.000000  1.995190  0.263475
434   3 0.0000  0.000000  1.995190  4.366130
435   3 0.0000  0.000000  1.995190  8.468786
436   3 0.0000  0.000000  1.995190 12.571441
437   3 0.0000  0.000000  1.995190 16.674096
438   3 0.0000  0.000000  1.995190 20.776752
439   3 0.0000  0.000000  5.985569  0.263475
440   3 0.0000  0.000000  5.985569  4.366130
441   3 0.0000  0.000000  5.985569  8.468786
442   3 0.0000  0.000000  5.985569 12.571441
443   3 0.0000  0.000000  5.985569 16.674096
444   3 0.0000  0.000000  5.985569 20.776752
445   3 0.0000  0.000000  9.975948  0.263475
446   3 0.0000  0.000000  9.975948  4.366130
447   3 0.0000  0.000000  9.975948  8.468786
448   3 0.0000  0.000000  9.975948 12.571441
449   3 0.0000  0.000000  9.975948 16.674096
450   3 0.0000  0.000000  9.975948 20.776752
451   3 0.0000  0.000000 13.966327  0.263475
452   3 0.0000  0.000000 13.966327  4.366130
453   3 0.0000  0.000000 13.966327  8.468786
454   3 0.0000  0.000000 13.966327 12.571441
455   3 0.0000  0.000000 13.966327 16.674096
456   3 0.0000  0.000000 13.966327 20.776752
457   3 0.0000  0.000000 17.956706  0.263475
458   3 0.0000  0.000000 17.956706  4.366130
459   3 0.0000  0.000000 17.956706  8.468786
460   3 0.0000  0.000000 17.956706 12.571441
461   3 0.0000  0.000000 17.956706 16.674096
462   3 0.0000  0.000000 17.956706 20.776752
463   3 0.0000  0.000000 21.947086  0.263475
464   3 0.0000  0.000000 21.947086  4.366130
465   3 0.0000  0.000000 21.947086  8.468786
466   3 0.0000  0.000000 21.947086 12.571441
467   3 0.0000  0.000000 21.947086 16.674096
468   3 0.0000  0.000000 21.947086 20.776752
469   3 0.0000  3.990379  1.995190  0.263475
470   3 0.0000  3.990379  1.995190  4.366130
471   3 0.0000  3.990379  1.995190  8.468786
472   3 0.0000  3.990379  1.995190 12.571441
473   3 0.0000  3.990379  1.995190 16.674096
474   3 0.0000  3.990379  1.995190 20.776752
475   3 0.0000  3.990379  5.985569  0.263475
476   3 0.0000  3.990379  5.985569  4.366130
477   3 0.0000  3.990379  5.985569  8.468786
478   3 0.0000  3.990379  5.985569 12.571441
479   3 0.0000  3.990379  5.985569 16.674096
480   3 0.0000  3.990379  5.985569 20.776752
481   3 0.0000  3.990379  9.975948  0.263475
482   3 0.0000  3.990379  9.975948  4.366130
483   3 0.0000  3.990379  9.975948  8.468786
484   3 0.0000  3.990379  9.975948 12.571441
485   3 0.0000  3.990379  9.975948 16.674096
486   3 0.0000  3.990379  9.975948 20.776752
487   3 0.0000  3.990379 13.966327  0.263475
488   3 0.0000  3.990379 13.966327  4.366130
489   3 0.0000  3.990379 13.966327  8.468786
490   3 0.0000  3.990379 13.966327 12.571441
491   3 0.0000  3.990379 13.966327 16.674096
492   3 0.0000  3.990379 13.966327 20.776752
493   3 0.0000  3.990379 17.956706  0.263475
494   3 0.0000  3.990379 17.956706  4.366130
495   3 0.0000  3.990379 17.956706  8.468786
496   3 0.0000  3.990379 17.956706 12.571441
497   3 0.0000  3.990379 17.956706 16.674096
498   3 0.0000  3.990379 17.956706 20.776752
499   3 0.0000  3.990379 21.947086  0.263475
500   3 0.0000  3.990379 21.947086  4.366130
501   3 0.0000  3.990379 21.947086  8.468786
502   3 0.0000  3.990379 21.947086 12.571441
503   3 0.0000  3.990379 21.947086 16.674096
504   3 0.0000  3.990379 21.947086 20.776752
505   3 0.0000  7.980758  1.995190  0.263475
506   3 0.0000  7.980758  1.995190  4.366130
507   3 0.0000  7.980758  1.995190  8.468786
508   3 0.0000  7.980758  1.995190 12.571441
509   3 0.0000  7.980758  1.995190 16.674096
510   3 0.0000  7.980758  1.995190 20.776752
511   3 0.0000  7.980758  5.985569  0.263475
512   3 0.0000  7.980758  5.985569  4.366130
513   3 0.0000  7.980758  5.985569  8.468786
514   3 0.0000  7.980758  5.985569 12.571441
515   3 0.0000  7.980758  5.985569 16.674096
516   3 0.0000  7.980758  5.985569 20.776752
517   3 0.0000  7.980758  9.975948  0.263475
518   3 0.0000  7.980758  9.975948  4.366130
519   3 0.0000  7.980758  9.975948  8.468786
520   3 0.0000  7.980758  9.975948 12.571441
521   3 0.0000  7.980758  9.975948 16.674096
522   3 0.0000  7.980758  9.975948 20.776752
523   3 0.0000  7.980758 13.966327  0.263475
524   3 0.0000  7.980758 13.966327  4.366130
525   3 0.0000  7.980758 13.966327  8.468786
526   3 0.0000  7.980758 13.966327 12.571441
527   3 0.0000  7.980758 13.966327 16.674096
528   3 0.0000  7.980758 13.966327 20.776752
529   3 0.0000  7.980758 17.956706  0.263475
530   3 0.0000  7.980758 17.956706  4.366130
531   3 0.0000  7.980758 17.956706  8.468786
532   3 0.0000  7.980758 17.956706 12.571441
533   3 0.0000  7.980758 17.956706 16.674096
534   3 0.0000  7.980758 17.956706 20.776752
535   3 0.0000  7.980758 21.947086  0.263475
536   3 0.0000  7.980758 21.947086  4.366130
537   3 0.0000  7.980758 21.947086  8.468786
538   3 0.0000  7.980758 21.947086 12.571441
539   3 0.0000  7.980758 21.947086 16.674096
540   3 0.0000  7.980758 21.947086 20.776752
541   3 0.0000 11.971138  1.995190  0.263475
542   3 0.0000 11.971138  1.995190  4.366130
543   3 0.0000 11.971138  1.995190  8.468786
544   3 0.0000 11.971138  1.995190 12.571441
545   3 0.0000 11.971138  1.995190 16.674096
546   3 0.0000 11.971138  1.995190 20.776752
547   3 0.0000 11.971138  5.985569  0.263475
548   3 0.0000 11.971138  5.985569  4.366130
549   3 0.0000 11.971138  5.985569  8.468786
550   3 0.0000 11.971138  5.985569 12.571441
551   3 0.0000 11.971138  5.985569 16.674096
552   3 0.0000 11.971138  5.985569 20.776752
553   3 0.0000 11.971138  9.975948  0.263475
554   3 0.0000 11.971138  9.975948  4.366130
555   3 0.0000 11.971138  9.975948  8.468786
556   3 0.0000 11.971138  9.975948 12.571441
557   3 0.0000 11.971138  9.975948 16.674096
558   3 0.0000 11.971138  9.975948 20.776752
559   3 0.0000 11.971138 13.966327  0.263475
560   3 0.0000 11.971138 13.966327  4.366130
561   3 0.0000 11.971138 13.966327  8.468786
562   3 0.0000 11.971138 13.966327 12.571441
563   3 0.0000 11.971138 13.966327 16.674096
564   3 0.0000 11.971138 13.966327 20.776752
565   3 0.0000 11.971138 17.956706  0.263475
566   3 0.0000 11.971138 17.956706  4.366130
567   3 0.0000 11.971138 17.956706  8.468786
568   3 0.0000 11.971138 17.956706 12.571441
569   3 0.0000 11.971138 17.956706 16.674096
570   3 0.0000 11.971138 17.956706 20.776752
571   3 0.0000 11.971138 21.947086  0.263475
572   3 0.0000 11.971138 21.947086  4.366130
573   3 0.0000 11.971138 21.947086  8.468786
574   3 0.0000 11.971138 21.947086 12.571441
575   3 0.0000 11.971138 21.947086 16.674096
576   3 0.0000 11.971138 21.947086 20.776752
577   3 0.0000 15.961517  1.995190  0.263475
578   3 0.0000 15.961517  1.995190  4.366130
579   3 0.0000 15.961517  1.995190  8.468786
580   3 0.0000 15.961517  1.995190 12.571441
581   3 0.0000 15.961517  1.995190 16.674096
582   3 0.0000 15.961517  1.995190 20.776752
583   3 0.0000 15.961517  5.985569  0.263475
584   3 0.0000 15.961517  5.985569  4.366130
585   3 0.0000 15.961517  5.985569  8.468786
586   3 0.0000 15.961517  5.985569 12.571441
587   3 0.0000 15.961517  5.985569 16.674096
588   3 0.0000 15.961517  5.985569 20.776752
589   3 0.0000 15.961517  9.975948  0.263475
590   3 0.0000 15.961517  9.975948  4.366130
591   3 0.0000 15.961517  9.975948  8.468786
592   3 0.0000 15.961517  9.975948 12.571441
593   3 0.0000 15.961517  9.975948 16.674096
594   3 0.0000 15.961517  9.975948 20.776752
595   3 0.0000 15.961517 13.966327  0.263475
596   3 0.0000 15.961517 13.966327  4.366130
597   3 0.0000 15.961517 13.966327  8.468786
598   3 0.0000 15.961517 13.966327 12.571441
599   3 0.0000 15.961517 13.966327 16.674096
600   3 0.0000 15.961517 13.966327 20.776752
601   3 0.0000 15.961517 17.956706  0.263475
602   3 0.0000 15.961517 17.956706  4.366130
603   3 0.0000 15.961517 17.956706  8.468786
604   3 0.0000 15.961517 17.956706 12.571441
605   3 0.0000 15.961517 17.956706 16.674096
606   3 0.0000 15.961517 17.956706 20.776752
607   3 0.0000 15.961517 21.947086  0.263475
608   3 0.0000 15.961517 21.947086  4.366130
609   3 0.0000 15.961517 21.947086  8.468786
610   3 0.0000 15.961517 21.947086 12.571441
611   3 0.0000 15.961517 21.947086 16.674096
612   3 0.0000 15.961517 21.947086 20.776752
613   3 0.0000 19.951896  1.995190  0.263475
614   3 0.0000 19.951896  1.995190  4.366130
615   3 0.0000 19.951896  1.995190  8.468786
616   3 0.0000 19.951896  1.995190 12.571441
617   3 0.0000 19.951896  1.995190 16.674096
618   3 0.0000 19.951896  1.995190 20.776752
619   3 0.0000 19.951896  5.985569  0.263475
620   3 0.0000 19.951896  5.985569  4.366130
621   3 0.0000 19.951896  5.985569  8.468786
622   3 0.0000 19.951896  5.985569 12.571441
623   3 0.0000 19.951896  5.985569 16.674096
624   3 0.0000 19.951896  5.985569 20.776752
625   3 0.0000 19.951896  9.975948  0.263475
626   3 0.0000 19.951896  9.975948  4.366130
627   3 0.0000 19.951896  9.975948  8.468786
628   3 0.0000 19.951896  9.975948 12.571441
629   3 0.0000 19.951896  9.975948 16.674096
630   3 0.0000 19.951896  9.975948 20.776752
631   3 0.0000 19.951896 13.966327  0.263475
632   3 0.0000 19.951896 13.966327  4.366130
633   3 0.0000 19.951896 13.966327  8.468786
634   3 0.0000 19.951896 13.966327 12.571441
635   3 0.0000 19.951896 13.966327 16.674096
636   3 0.0000 19.951896 13.966327 20.776752
637   3 0.0000 19.951896 17.956706  0.263475
638   3 0.0000 19.951896 17.956706  4.366130
639   3 0.0000 19.951896 17.956706  8.468786
640   3 0.0000 19.951896 17.956706 12.571441
641   3 0.0000 19.951896 17.956706 16.674096
642   3 0.0000 19.951896 17.956706 20.776752
643   3 0.0000 19.951896 21.947086  0.263475
644   3 0.0000 19.951896 21.947086  4.366130
645   3 0.0000 19.951896 21.947086  8.468786
646   3 0.0000 19.951896 21.947086 12.571441
647   3 0.0000 19.951896 21.947086 16.674096
648   3 0.0000 19.951896 21.947086 20.776752
649   3 0.0000  1.995190  0.000000  0.263475
650   3 0.0000  1.995190  0.000000  4.366130
651   3 0.0000  1.995190  0.000000  8.468786
652   3 0.0000  1.995190  0.000000 12.571441
653   3 0.0000  1.995190  0.000000 16.674096
654   3 0.0000  1.995190  0.000000 20.776752
655   3 0.0000  1.995190  3.990379  0.263475
656   3 0.0000  1.995190  3.990379  4.366130
657   3 0.0000  1.995190  3.990379  8.468786
658   3 0.0000  1.995190  3.990379 12.571441
659   3 0.0000  1.995190  3.990379 16.674096
660   3 0.0000  1.995190  3.990379 20.776752
661   3 0.0000  1.995190  7.980758  0.263475
662   3 0.0000  1.995190  7.980758  4.366130
663   3 0.0000  1.995190  7.980758  8.468786
664   3 0.0000  1.995190  7.980758 12.571441
665   3 0.0000  1.995190  7.980758 16.674096
666   3 0.0000  1.995190  7.980758 20.776752
667   3 0.0000  1.995190 11.971138  0.263475
668   3 0.0000  1.995190 11.971138  4.366130
669   3 0.0000  1.995190 11.971138  8.468786
670   3 0.0000  1.995190 11.971138 12.571441
671   3 0.0000  1.995190 11.971138 16.674096
672   3 0.0000  1.995190 11.971138 20.776752
673   3 0.0000  1.995190 15.961517  0.263475
674   3 0.0000  1.995190 15.961517  4.366130
675   3 0.0000  1.995190 15.961517  8.468786
676   3 0.0000  1.995190 15.961517 12.571441
677   3 0.0000  1.995190 15.961517 16.674096
678   3 0.0000  1.995190 15.961517 20.776752
679   3 0.0000  1.995190 19.951896  0.263475
680   3 0.0000  1.995190 19.951896  4.366130
681   3 0.0000  1.995190 19.951896  8.468786
682   3 0.0000  1.995190 19.951896 12.571441
683   3 0.0000  1.995190 19.951896 16.674096
684   3 0.0000  1.995190 19.951896 20.776752
685   3 0.0000  5.985569  0.000000  0.263475
686   3 0.0000  5.985569  0.000000  4.366130
687   3 0.0000  5.985569  0.000000  8.468786
688   3 0.0000  5.985569  0.000000 12.571441
689   3 0.0000  5.985569  0.000000 16.674096
690   3 0.0000  5.985569  0.000000 20.776752
691   3 0.0000  5.985569  3.990379  0.263475
692   3 0.0000  5.985569  3.990379  4.366130
693   3 0.0000  5.985569  3.990379  8.468786
694   3 0.0000  5.985569  3.990379 12.571441
695   3 0.0000  5.985569  3.990379 16.674096
696   3 0.0000  5.985569  3.990379 20.776752
697   3 0.0000  5.985569  7.980758  0.263475
698   3 0.0000  5.985569  7.980758  4.366130
699   3 0.0000  5.985569  7.980758  8.468786
700   3 0.0000  5.985569  7.980758 12.571441
701   3 0.0000  5.985569  7.980758 16.674096
702   3 0.0000  5.985569  7.980758 20.776752
703   3 0.0000  5.985569 11.971138  0.263475
704   3 0.0000  5.985569 11.971138  4.366130
705   3 0.0000  5.985569 11.971138  8.468786
706   3 0.0000  5.985569 11.971138 12.571441
707   3 0.0000  5.985569 11.971138 16.674096
708   3 0.0000  5.985569 11.971138 20.776752
709   3 0.0000  5.985569 15.961517  0.263475
710   3 0.0000  5.985569 15.961517  4.366130
711   3 0.0000  5.985569 15.961517  8.468786
712   3 0.0000  5.985569 15.961517 12.571441
713   3 0.0000  5.985569 15.961517 16.674096
714   3 0.0000  5.985569 15.961517 20.776752
715   3 0.0000  5.985569 19.951896  0.263475
716   3 0.0000  5.985569 19.951896  4.366130
717   3 0.0000  5.985569 19.951896  8.468786
718   3 0.0000  5.985569 19.951896 12.571441
719   3 0.0000  5.985569 19.951896 16.674096
720   3 0.0000  5.985569 19.951896 20.776752
721   3 0.0000  9.975948  0.000000  0.263475
722   3 0.0000  9.975948  0.000000  4.366130
723   3 0.0000  9.975948  0.000000  8.468786
724   3 0.0000  9.975948  0.000000 12.571441
725   3 0.0000  9.975948  0.000000 16.674096
726   3 0.0000  9.975948  0.000000 20.776752
727   3 0.0000  9.975948  3.990379  0.263475
728   3 0.0000  9.975948  3.990379  4.366130
729   3 0.0000  9.975948  3.990379  8.468786
730   3 0.0000  9.975948  3.990379 12.571441
731   3 0.0000  9.975948  3.990379 16.674096
732   3 0.0000  9.975948  3.990379 20.776752
733   3 0.0000  9.975948  7.980758  0.263475
734   3 0.0000  9.975948  7.980758  4.366130
735   3 0.0000  9.975948  7.980758  8.468786
736   3 0.0000  9.975948  7.980758 12.571441
737   3 0.0000  9.975948  7.980758 16.674096
738   3 0.0000  9.975948  7.980758 20.776752
739   3 0.0000  9.975948 11.971138  0.263475
740   3 0.0000  9.975948 11.971138  4.366130
741   3 0.0000  9.975948 11.971138  8.468786
742   3 0.0000  9.975948 11.971138 12.571441
743   3 0.0000  9.975948 11.971138 16.674096
744   3 0.0000  9.975948 11.971138 20.776752
745   3 0.0000  9.975948 15.961517  0.263475
746   3 0.0000  9.975948 15.961517  4.366130
747   3 0.0000  9.975948 15.961517  8.468786
748   3 0.0000  9.975948 15.961517 12.571441
749   3 0.0000  9.975948 15.961517 16.674096
750   3 0.0000  9.975948 15.961517 20.776752
751   3 0.0000  9.975948 19.951896  0.263475
752   3 0.0000  9.975948 19.951896  4.366130
753   3 0.0000  9.975948 19.951896  8.468786
754   3 0.0000  9.975948 19.951896 12.571441
755   3 0.0000  9.975948 19.951896 16.674096
756   3 0.0000  9.975948 19.951896 20.776752
757   3 0.0000 13.966327  0.000000  0.263475
758   3 0.0000 13.966327  0.000000  4.366130
759   3 0.0000 13.966327  0.000000  8.468786
760   3 0.0000 13.966327  0.000000 12.571441
761   3 0.0000 13.966327  0.000000 16.674096
762   3 0.0000 13.966327  0.000000 20.776752
763   3 0.0000 13.966327  3.990379  0.263475
764   3 0.0000 13.966327  3.990379  4.366130
765   3 0.0000 13.966327  3.990379  8.468786
766   3 0.0000 13.966327  3.990379 12.571441
767   3 0.0000 13.966327  3.990379 16.674096
768   3 0.0000 13.966327  3.990379 20.776752
769   3 0.0000 13.966327  7.980758  0.263475
770   3 0.0000 13.966327  7.980758  4.366130
771   3 0.0000 13.966327  7.980758  8.468786
772   3 0.0000 13.966327  7.980758 12.571441
773   3 0.0000 13.966327  7.980758 16.674096
774   3 0.0000 13.966327  7.980758 20.776752
775   3 0.0000 13.966327 11.971138  0.263475
776   3 0.0000 13.966327 11.971138  4.366130
777   3 0.0000 13.966327 11.971138  8.468786
778   3 0.0000 13.966327 11.971138 12.571441
779   3 0.0000 13.966327 11.971138 16.674096
780   3 0.0000 13.966327 11.971138 20.776752
781   3 0.0000 13.966327 15.961517  0.263475
782   3 0.0000 13.966327 15.961517  4.366130
783   3 0.0000 13.966327 15.961517  8.468786
784   3 0.0000 13.966327 15.961517 12.571441
785   3 0.0000 13.966327 15.961517 16.674096
786   3 0.0000 13.966327 15.961517 20.776752
787   3 0.0000 13.966327 19.951896  0.263475
788   3 0.0000 13.966327 19.951896  4.366130
789   3 0.0000 13.966327 19.951896  8.468786
790   3 0.0000 13.966327 19.951896 12.571441
791   3 0.0000 13.966327 19.951896 16.674096
792   3 0.0000 13.966327 19.951896 20.776752
793   3 0.0000 17.956706  0.000000  0.263475
794   3 0.0000 17.956706  0.000000  4.366130
795   3 0.0000 17.956706  0.000000  8.468786
796   3 0.0000 17.956706  0.000000 12.571441
797   3 0.0000 17.956706  0.000000 16.674096
798   3 0.0000 17.956706  0.000000 20.776752
799   3 0.0000 17.956706  3.990379  0.263475
800   3 0.0000 17.956706  3.990379  4.366130
801   3 0.0000 17.956706  3.990379  8.468786
802   3 0.0000 17.956706  3.990379 12.571441
803   3 0.0000 17.956706  3.990379 16.674096
804   3 0.0000 17.956706  3.990379 20.776752
805   3 0.0000 17.956706  7.980758  0.263475
806   3 0.0000 17.956706  7.980758  4.366130
807   3 0.0000 17.956706  7.980758  8.468786
808   3 0.0000 17.956706  7.980758 12.571441
809   3 0.0000 17.956706  7.980758 16.674096
810   3 0.0000 17.956706  7.980758 20.776752
811   3 0.0000 17.956706 11.971138  0.263475
812   3 0.0000 17.956706 11.971138  4.366130
813   3 0.0000 17.956706 11.971138  8.468786
814   3 0.0000 17.956706 11.971138 12.571441
815   3 0.0000 17.956706 11.971138 16.674096
816   3 0.0000 17.956706 11.971138 20.776752
817   3 0.0000 17.956706 15.961517  0.263475
818   3 0.0000 17.956706 15.961517  4.366130
819   3 0.0000 17.956706 15.961517  8.468786
820   3 0.0000 17.956706 15.961517 12.571441
821   3 0.0000 17.956706 15.961517 16.674096
822   3 0.0000 17.956706 15.961517 20.776752
823   3 0.0000 17.956706 19.951896  0.263475
824   3 0.0000 17.956706 19.951896  4.366130
825   3 0.0000 17.956706 19.951896  8.468786
826   3 0.0000 17.956706 19.951896 12.571441
827   3 0.0000 17.956706 19.951896 16.674096
828   3 0.0000 17.956706 19.951896 20.776752
829   3 0.0000 21.947086  0.000000  0.263475
830   3 0.0000 21.947086  0.000000  4.366130
831   3 0.0000 21.947086  0.000000  8.468786
832   3 0.0000 21.947086  0.000000 12.571441
833   3 0.0000 21.947086  0.000000 16.674096
834   3 0.0000 21.947086  0.000000 20.776752
835   3 0.0000 21.947086  3.990379  0.263475
836   3 0.0000 21.947086  3.990379  4.366130
837   3 0.0000 21.947086  3.990379  8.468786
838   3 0.0000 21.947086  3.990379 12.571441
839   3 0.0000 21.947086  3.990379 16.674096
840   3 0.0000 21.947086  3.990379 20.776752
841   3 0.0000 21.947086  7.980758  0.263475
842   3 0.0000 21.947086  7.980758  4.366130
843   3 0.0000 21.947086  7.980758  8.468786
844   3 0.0000 21.947086  7.980758 12.571441
845   3 0.0000 21.947086  7.980758 16.674096
846   3 0.0000 21.947086  7.980758 20.776752
847   3 0.0000 21.947086 11.971138  0.263475
848   3 0.0000 21.947086 11.971138  4.366130
849   3 0.0000 21.947086 11.971138  8.468786
850   3 0.0000 21.947086 11.971138 12.571441
851   3 0.0000 21.947086 11.971138 16.674096
852   3 0.0000 21.947086 11.971138 20.776752
853   3 0.0000 21.947086 15.961517  0.263475
854   3 0.0000 21.947086 15.961517  4.366130
855   3 0.0000 21.947086 15.961517  8.468786
856   3 0.0000 21.947086 15.961517 12.571441
857   3 0.0000 21.947086 15.961517 16.674096
858   3 0.0000 21.947086 15.961517 20.776752
859   3 0.0000 21.947086 19.951896  0.263475
860   3 0.0000 21.947086 19.951896  4.366130
861   3 0.0000 21.947086 19.951896  8.468786
862   3 0.0000 21.947086 19.951896 12.571441
863   3 0.0000 21.947086 19.951896 16.674096
864   3 0.0000 21.947086 19.951896 20.776752
865   3 0.0000  0.000000  0.000000  2.252242
866   3 0.0000  0.000000  0.000000  6.354897
867   3 0.0000  0.000000  0.000000 10.457553
868   3 0.0000  0.000000  0.000000 14.560208
869   3 0.0000  0.000000  0.000000 18.662863
870   3 0.0000  0.000000  0.000000 22.765519
871   3 0.0000  0.000000  3.990379  2.252242
872   3 0.0000  0.000000  3.990379  6.354897
873   3 0.0000  0.000000  3.990379 10.457553
874   3 0.0000  0.000000  3.990379 14.560208
875   3 0.0000  0.000000  3.990379 18.662863
876   3 0.0000  0.000000  3.990379 22.765519
877   3 0.0000  0.000000  7.980758  2.252242
878   3 0.0000  0.000000  7.980758  6.354897
879   3 0.0000  0.000000  7.980758 10.457553
880   3 0.0000  0.000000  7.980758 14.560208
881   3 0.0000  0.000000  7.980758 18.662863
882   3 0.0000  0.000000  7.980758 22.765519
883   3 0.0000  0.000000 11.971138  2.252242
884   3 0.0000  0.000000 11.971138  6.354897
885   3 0.0000  0.000000 11.971138 10.457553
886   3 0.0000  0.000000 11.971138 14.560208
887   3 0.0000  0.000000 11.971138 18.662863
888   3 0.0000  0.000000 11.971138 22.765519
889   3 0.0000  0.000000 15.961517  2.252242
890   3 0.0000  0.000000 15.961517  6.354897
891   3 0.0000  0.000000 15.961517 10.457553
892   3 0.0000  0.000000 15.961517 14.560208
893   3 0.0000  0.000000 15.961517 18.662863
894   3 0.0000  0.000000 15.961517 22.765519
895   3 0.0000  0.000000 19.951896  2.252242
896   3 0.0000  0.000000 19.951896  6.354897
897   3 0.0000  0.000000 19.951896 10.457553
898   3 0.0000  0.000000 19.951896 14.560208
899   3 0.0000  0.000000 19.951896 18.662863
900   3 0.0000  0.000000 19.951896 22.765519
901   3 0.0000  3.990379  0.000000  2.252242
902   3 0.0000  3.990379  0.000000  6.354897
903   3 0.0000  3.990379  0.000000 10.457553
904   3 0.0000  3.990379  0.000000 14.560208
905   3 0.0000  3.990379  0.000000 18.662863
906   3 0.0000  3.990379  0.000000 22.765519
907   3 0.0000  3.990379  3.990379  2.252242
908   3 0.0000  3.990379  3.990379  6.354897
909   3 0.0000  3.990379  3.990379 10.457553
910   3 0.0000  3.990379  3.990379 14.560208
911   3 0.0000  3.990379  3.990379 18.662863
912   3 0.0000  3.990379  3.990379 22.765519
913   3 0.0000  3.990379  7.980758  2.252242
914   3 0.0000  3.990379  7.980758  6.354897
915   3 0.0000  3.990379  7.980758 10.457553
916   3 0.0000  3.990379  7.980758 14.560208
917   3 0.0000  3.990379  7.980758 18.662863
918   3 0.0000  3.990379  7.980758 22.765519
919   3 0.0000  3.990379 11.971138  2.252242
920   3 0.0000  3.990379 11.971138  6.354897
921   3 0.0000  3.990379 11.971138 10.457553
922   3 0.0000  3.990379 11.971138 14.560208
923   3 0.0000  3.990379 11.971138 18.662863
924   3 0.0000  3.990379 11.971138 22.765519
925   3 0.0000  3.990379 15.961517  2.252242
926   3 0.0000  3.990379 15.961517  6.354897
927   3 0.0000  3.990379 15.961517 10.457553
928   3 0.0000  3.990379 15.961517 14.560208
929   3 0.0000  3.990379 15.961517 18.662863
930   3 0.0000  3.990379 15.961517 22.765519
931   3 0.0000  3.990379 19.951896  2.252242
932   3 0.0000  3.990379 19.951896  6.354897
933   3 0.0000  3.990379 19.951896 10.457553
934   3 0.0000  3.990379 19.951896 14.560208
935   3 0.0000  3.990379 19.951896 18.662863
936   3 0.0000  3.990379 19.951896 22.765519
937   3 0.0000  7.980758  0.000000  2.252242
938   3 0.0000  7.980758  0.000000  6.354897
939   3 0.0000  7.980758  0.000000 10.457553
940   3 0.0000  7.980758  0.000000 14.560208
941   3 0.0000  7.980758  0.000000 18.662863
942   3 0.0000  7.980758  0.000000 22.765519
943   3 0.0000  7.980758  3.990379  2.252242
944   3 0.0000  7.980758  3.990379  6.354897
945   3 0.0000  7.980758  3.990379 10.457553
946   3 0.0000  7.980758  3.990379 14.560208
947   3 0.0000  7.980758  3.990379 18.662863
948   3 0.0000  7.980758  3.990379 22.765519
949   3 0.0000  7.980758  7.980758  2.252242
950   3 0.0000  7.980758  7.980758  6.354897
951   3 0.0000  7.980758  7.980758 10.457553
952   3 0.0000  7.980758  7.980758 14.560208
953   3 0.0000  7.980758  7.980758 18.662863
954   3 0.0000  7.980758  7.980758 22.765519
955   3 0.0000  7.980758 11.971138  2.252242
956   3 0.0000  7.980758 11.971138  6.354897
957   3 0.0000  7.980758 11.971138 10.457553
958   3 0.0000  7.980758 11.971138 14.560208
959   3 0.0000  7.980758 11.971138 18.662863
960   3 0.0000  7.980758 11.971138 22.765519
961   3 0.0000  7.980758 15.961517  2.252242
962   3 0.0000  7.980758 15.961517  6.354897
963   3 0.0000  7.980758 15.961517 10.457553
964   3 0.0000  7.980758 15.961517 14.560208
965   3 0.0000  7.980758 15.961517 18.662863
966   3 0.0000  7.980758 15.961517 22.765519
967   3 0.0000  7.980758 19.951896  2.252242
968   3 0.0000  7.980758 19.951896  6.354897
969   3 0.0000  7.980758 19.951896 10.457553
970   3 0.0000  7.980758 19.951896 14.560208
971   3 0.0000  7.980758 19.951896 18.662863
972   3 0.0000  7.980758 19.951896 22.765519
973   3 0.0000 11.971138  0.000000  2.252242
974   3 0.0000 11.971138  0.000000  6.354897
975   3 0.0000 11.971138  0.000000 10.457553
976   3 0.0000 11.971138  0.000000 14.560208
977   3 0.0000 11.971138  0.000000 18.662863
978   3 0.0000 11.971138  0.000000 22.765519
979   3 0.0000 11.971138  3.990379  2.252242
980   3 0.0000 11.971138  3.990379  6.354897
981   3 0.0000 11.971138  3.990379 10.457553
982   3 0.0000 11.971138  3.990379 14.560208
983   3 0.0000 11.971138  3.990379 18.662863
984   3 0.0000 11.971138  3.990379 22.765519
985   3 0.0000 11.971138  7.980758  2.252242
986   3 0.0000 11.971138  7.980758  6.354897
987   3 0.0000 11.971138  7.980758 10.457553
988   3 0.0000 11.971138  7.980758 14.560208
989   3 0.0000 11.971138  7.980758 18.662863
990   3 0.0000 11.971138  7.980758 22.765519
991   3 0.0000 11.971138 11.971138  2.252242
992   3 0.0000 11.971138 11.971138  6.354897
993   3 0.0000 11.971138 11.971138 10.457553
994   3 0.0000 11.971138 11.971138 14.560208
995   3 0.0000 11.971138 11.971138 18.662863
996   3 0.0000 11.971138 11.971138 22.765519
997   3 0.0000 11.971138 15.961517  2.252242
998   3 0.0000 11.971138 15.961517  6.354897
999   3 0.0000 11.971138 15.961517 10.457553
1000  3 0.0000 11.971138 15.961517 14.560208
1001  3 0.0000 11.971138 15.961517 18.662863
1002  3 0.0000 11.971138 15.961517 22.765519
1003  3 0.0000 11.971138 19.951896  2.252242
1004  3 0.0000 11.971138 19.951896  6.354897
1005  3 0.0000 11.971138 19.951896 10.457553
1006  3 0.0000 11.971138 19.951896 14.560208
1007  3 0.0000 11.971138 19.951896 18.662863
1008  3 0.0000 11.971138 19.951896 22.765519
1009  3 0.0000 15.961517  0.000000  2.252242
1010  3 0.0000 15.961517  0.000000  6.354897
1011  3 0.0000 15.961517  0.000000 10.457553
1012  3 0.0000 15.961517  0.000000 14.560208
1013  3 0.0000 15.961517  0.000000 18.662863
1014  3 0.0000 15.961517  0.000000 22.765519
1015  3 0.0000 15.961517  3.990379  2.252242
1016  3 0.0000 15.961517  3.990379  6.354897
1017  3 0.0000 15.961517  3.990379 10.457553
1018  3 0.0000 15.961517  3.990379 14.560208
1019  3 0.0000 15.961517  3.990379 18.662863
1020  3 0.0000 15.961517  3.990379 22.765519
1021  3 0.0000 15.961517  7.980758  2.252242
1022  3 0.0000 15.961517  7.980758  6.354897
1023  3 0.0000 15.961517  7.980758 10.457553
1024  3 0.0000 15.961517  7.980758 14.560208
1025  3 0.0000 15.961517  7.980758 18.662863
1026  3 0.0000 15.961517  7.980758 22.765519
1027  3 0.0000 15.961517 11.971138  2.252242
1028  3 0.0000 15.961517 11.971138  6.354897
1029  3 0.0000 15.961517 11.971138 10.457553
1030  3 0.0000 15.961517 11.971138 14.560208
1031  3 0.0000 15.961517 11.971138 18.662863
1032  3 0.0000 15.961517 11.971138 22.765519
1033  3 0.0000 15.961517 15.961517  2.252242
1034  3 0.0000 15.961517 15.961517  6.354897
1035  3 0.0000 15.961517 15.961517 10.457553
1036  3 0.0000 15.961517 15.961517 14.560208
1037  3 0.0000 15.961517 15.961517 18.662863
1038  3 0.0000 15.961517 15.961517 22.765519
1039  3 0.0000 15.961517 19.951896  2.252242
1040  3 0.0000 15.961517 19.951896  6.354897
1041  3 0.0000 15.961517 19.951896 10.457553
1042  3 0.0000 15.961517 19.951896 14.560208
1043  3 0.0000 15.961517 19.951896 18.662863
1044  3 0.0000 15.961517 19.951896 22.765519
1045  3 0.0000 19.951896  0.000000  2.252242
1046  3 0.0000 19.951896  0.000000  6.354897
1047  3 0.0000 19.951896  0.000000 10.457553
1048  3 0.0000 19.951896  0.000000 14.560208
1049  3 0.0000 19.951896  0.000000 18.662863
1050  3 0.0000 19.951896  0.000000 22.765519
1051  3 0.0000 19.951896  3.990379  2.252242
1052  3 0.0000 19.951896  3.990379  6.354897
1053  3 0.0000 19.951896  3.990379 10.457553
1054  3 0.0000 19.951896  3.990379 14.560208
1055  3 0.0000 19.951896  3.990379 18.662863
1056  3 0.0000 19.951896  3.990379 22.765519
1057  3 0.0000 19.951896  7.980758  2.252242
1058  3 0.0000 19.951896  7.980758  6.354897
1059  3 0.0000 19.951896  7.980758 10.457553
1060  3 0.0000 19.951896  7.980758 14.560208
1061  3 0.0000 19.951896  7.980758 18.662863
1062  3 0.0000 19.951896  7.980758 22.765519
1063  3 0.0000 19.951896 11.971138  2.252242
1064  3 0.0000 19.951896 11.971138  6.354897
1065  3 0.0000 19.951896 11.971138 10.457553
1066  3 0.0000 19.951896 11.971138 14.560208
1067  3 0.0000 19.951896 11.971138 18.662863
1068  3 0.0000 19.951896 11.971138 22.765519
1069  3 0.0000 19.951896 15.961517  2.252242
1070  3 0.0000 19.951896 15.961517  6.354897
1071  3 0.0000 19.951896 15.961517 10.457553
1072  3 0.0000 19.951896 15.961517 14.560208
1073  3 0.0000 19.951896 15.961517 18.662863
1074  3 0.0000 19.951896 15.961517 22.765519
1075  3 0.0000 19.951896 19.951896  2.252242
1076  3 0.0000 19.951896 19.951896  6.354897
1077  3 0.0000 19.951896 19.951896 10.457553
1078  3 0.0000 19.951896 19.951896 14.560208
1079  3 0.0000 19.951896 19.951896 18.662863
1080  3 0.0000 19.951896 19.951896 22.765519

