Generated by pymatgen.io.lammps.data.LammpsData

500  atoms

  2  atom types

0.000000 13.471386  xlo xhi
0.000000 11.666560  ylo yhi
0.000000 21.880094  zlo zhi
-6.735688 0.000000 0.000000  xy xz yz

Masses

1   9.012182
2  15.999400

Atoms

1    1 0.0000  0.000001  1.555541  0.000701
2    1 0.0000  0.000001  1.555541  4.376720
3    1 0.0000  0.000001  1.555541  8.752739
4    1 0.0000  0.000001  1.555541 13.128758
5    1 0.0000  0.000001  1.555541 17.504776
6    1 0.0000 -1.347137  3.888853  0.000701
7    1 0.0000 -1.347137  3.888853  4.376720
8    1 0.0000 -1.347137  3.888853  8.752739
9    1 0.0000 -1.347137  3.888853 13.128758
10   1 0.0000 -1.347137  3.888853 17.504776
11   1 0.0000 -2.694275  6.222165  0.000701
12   1 0.0000 -2.694275  6.222165  4.376720
13   1 0.0000 -2.694275  6.222165  8.752739
14   1 0.0000 -2.694275  6.222165 13.128758
15   1 0.0000 -2.694275  6.222165 17.504776
16   1 0.0000 -4.041412  8.555477  0.000701
17   1 0.0000 -4.041412  8.555477  4.376720
18   1 0.0000 -4.041412  8.555477  8.752739
19   1 0.0000 -4.041412  8.555477 13.128758
20   1 0.0000 -4.041412  8.555477 17.504776
21   1 0.0000 -5.388550 10.888789  0.000701
22   1 0.0000 -5.388550 10.888789  4.376720
23   1 0.0000 -5.388550 10.888789  8.752739
24   1 0.0000 -5.388550 10.888789 13.128758
25   1 0.0000 -5.388550 10.888789 17.504776
26   1 0.0000  2.694278  1.555541  0.000701
27   1 0.0000  2.694278  1.555541  4.376720
28   1 0.0000  2.694278  1.555541  8.752739
29   1 0.0000  2.694278  1.555541 13.128758
30   1 0.0000  2.694278  1.555541 17.504776
31   1 0.0000  1.347140  3.888853  0.000701
32   1 0.0000  1.347140  3.888853  4.376720
33   1 0.0000  1.347140  3.888853  8.752739
34   1 0.0000  1.347140  3.888853 13.128758
35   1 0.0000  1.347140  3.888853 17.504776
36   1 0.0000  0.000003  6.222165  0.000701
37   1 0.0000  0.000003  6.222165  4.376720
38   1 0.0000  0.000003  6.222165  8.752739
39   1 0.0000  0.000003  6.222165 13.128758
40   1 0.0000  0.000003  6.222165 17.504776
41   1 0.0000 -1.347135  8.555477  0.000701
42   1 0.0000 -1.347135  8.555477  4.376720
43   1 0.0000 -1.347135  8.555477  8.752739
44   1 0.0000 -1.347135  8.555477 13.128758
45   1 0.0000 -1.347135  8.555477 17.504776
46   1 0.0000 -2.694273 10.888789  0.000701
47   1 0.0000 -2.694273 10.888789  4.376720
48   1 0.0000 -2.694273 10.888789  8.752739
49   1 0.0000 -2.694273 10.888789 13.128758
50   1 0.0000 -2.694273 10.888789 17.504776
51   1 0.0000  5.388555  1.555541  0.000701
52   1 0.0000  5.388555  1.555541  4.376720
53   1 0.0000  5.388555  1.555541  8.752739
54   1 0.0000  5.388555  1.555541 13.128758
55   1 0.0000  5.388555  1.555541 17.504776
56   1 0.0000  4.041417  3.888853  0.000701
57   1 0.0000  4.041417  3.888853  4.376720
58   1 0.0000  4.041417  3.888853  8.752739
59   1 0.0000  4.041417  3.888853 13.128758
60   1 0.0000  4.041417  3.888853 17.504776
61   1 0.0000  2.694280  6.222165  0.000701
62   1 0.0000  2.694280  6.222165  4.376720
63   1 0.0000  2.694280  6.222165  8.752739
64   1 0.0000  2.694280  6.222165 13.128758
65   1 0.0000  2.694280  6.222165 17.504776
66   1 0.0000  1.347142  8.555477  0.000701
67   1 0.0000  1.347142  8.555477  4.376720
68   1 0.0000  1.347142  8.555477  8.752739
69   1 0.0000  1.347142  8.555477 13.128758
70   1 0.0000  1.347142  8.555477 17.504776
71   1 0.0000  0.000005 10.888789  0.000701
72   1 0.0000  0.000005 10.888789  4.376720
73   1 0.0000  0.000005 10.888789  8.752739
74   1 0.0000  0.000005 10.888789 13.128758
75   1 0.0000  0.000005 10.888789 17.504776
76   1 0.0000  8.082832  1.555541  0.000701
77   1 0.0000  8.082832  1.555541  4.376720
78   1 0.0000  8.082832  1.555541  8.752739
79   1 0.0000  8.082832  1.555541 13.128758
80   1 0.0000  8.082832  1.555541 17.504776
81   1 0.0000  6.735695  3.888853  0.000701
82   1 0.0000  6.735695  3.888853  4.376720
83   1 0.0000  6.735695  3.888853  8.752739
84   1 0.0000  6.735695  3.888853 13.128758
85   1 0.0000  6.735695  3.888853 17.504776
86   1 0.0000  5.388557  6.222165  0.000701
87   1 0.0000  5.388557  6.222165  4.376720
88   1 0.0000  5.388557  6.222165  8.752739
89   1 0.0000  5.388557  6.222165 13.128758
90   1 0.0000  5.388557  6.222165 17.504776
91   1 0.0000  4.041420  8.555477  0.000701
92   1 0.0000  4.041420  8.555477  4.376720
93   1 0.0000  4.041420  8.555477  8.752739
94   1 0.0000  4.041420  8.555477 13.128758
95   1 0.0000  4.041420  8.555477 17.504776
96   1 0.0000  2.694282 10.888789  0.000701
97   1 0.0000  2.694282 10.888789  4.376720
98   1 0.0000  2.694282 10.888789  8.752739
99   1 0.0000  2.694282 10.888789 13.128758
100  1 0.0000  2.694282 10.888789 17.504776
101  1 0.0000 10.777110  1.555541  0.000701
102  1 0.0000 10.777110  1.555541  4.376720
103  1 0.0000 10.777110  1.555541  8.752739
104  1 0.0000 10.777110  1.555541 13.128758
105  1 0.0000 10.777110  1.555541 17.504776
106  1 0.0000  9.429972  3.888853  0.000701
107  1 0.0000  9.429972  3.888853  4.376720
108  1 0.0000  9.429972  3.888853  8.752739
109  1 0.0000  9.429972  3.888853 13.128758
110  1 0.0000  9.429972  3.888853 17.504776
111  1 0.0000  8.082834  6.222165  0.000701
112  1 0.0000  8.082834  6.222165  4.376720
113  1 0.0000  8.082834  6.222165  8.752739
114  1 0.0000  8.082834  6.222165 13.128758
115  1 0.0000  8.082834  6.222165 17.504776
116  1 0.0000  6.735697  8.555477  0.000701
117  1 0.0000  6.735697  8.555477  4.376720
118  1 0.0000  6.735697  8.555477  8.752739
119  1 0.0000  6.735697  8.555477 13.128758
120  1 0.0000  6.735697  8.555477 17.504776
121  1 0.0000  5.388559 10.888789  0.000701
122  1 0.0000  5.388559 10.888789  4.376720
123  1 0.0000  5.388559 10.888789  8.752739
124  1 0.0000  5.388559 10.888789 13.128758
125  1 0.0000  5.388559 10.888789 17.504776
126  1 0.0000  1.347139  0.777771  2.188710
127  1 0.0000  1.347139  0.777771  6.564729
128  1 0.0000  1.347139  0.777771 10.940748
129  1 0.0000  1.347139  0.777771 15.316767
130  1 0.0000  1.347139  0.777771 19.692786
131  1 0.0000  0.000001  3.111083  2.188710
132  1 0.0000  0.000001  3.111083  6.564729
133  1 0.0000  0.000001  3.111083 10.940748
134  1 0.0000  0.000001  3.111083 15.316767
135  1 0.0000  0.000001  3.111083 19.692786
136  1 0.0000 -1.347136  5.444394  2.188710
137  1 0.0000 -1.347136  5.444394  6.564729
138  1 0.0000 -1.347136  5.444394 10.940748
139  1 0.0000 -1.347136  5.444394 15.316767
140  1 0.0000 -1.347136  5.444394 19.692786
141  1 0.0000 -2.694274  7.777706  2.188710
142  1 0.0000 -2.694274  7.777706  6.564729
143  1 0.0000 -2.694274  7.777706 10.940748
144  1 0.0000 -2.694274  7.777706 15.316767
145  1 0.0000 -2.694274  7.777706 19.692786
146  1 0.0000 -4.041411 10.111018  2.188710
147  1 0.0000 -4.041411 10.111018  6.564729
148  1 0.0000 -4.041411 10.111018 10.940748
149  1 0.0000 -4.041411 10.111018 15.316767
150  1 0.0000 -4.041411 10.111018 19.692786
151  1 0.0000  4.041416  0.777771  2.188710
152  1 0.0000  4.041416  0.777771  6.564729
153  1 0.0000  4.041416  0.777771 10.940748
154  1 0.0000  4.041416  0.777771 15.316767
155  1 0.0000  4.041416  0.777771 19.692786
156  1 0.0000  2.694279  3.111083  2.188710
157  1 0.0000  2.694279  3.111083  6.564729
158  1 0.0000  2.694279  3.111083 10.940748
159  1 0.0000  2.694279  3.111083 15.316767
160  1 0.0000  2.694279  3.111083 19.692786
161  1 0.0000  1.347141  5.444394  2.188710
162  1 0.0000  1.347141  5.444394  6.564729
163  1 0.0000  1.347141  5.444394 10.940748
164  1 0.0000  1.347141  5.444394 15.316767
165  1 0.0000  1.347141  5.444394 19.692786
166  1 0.0000  0.000003  7.777706  2.188710
167  1 0.0000  0.000003  7.777706  6.564729
168  1 0.0000  0.000003  7.777706 10.940748
169  1 0.0000  0.000003  7.777706 15.316767
170  1 0.0000  0.000003  7.777706 19.692786
171  1 0.0000 -1.347134 10.111018  2.188710
172  1 0.0000 -1.347134 10.111018  6.564729
173  1 0.0000 -1.347134 10.111018 10.940748
174  1 0.0000 -1.347134 10.111018 15.316767
175  1 0.0000 -1.347134 10.111018 19.692786
176  1 0.0000  6.735693  0.777771  2.188710
177  1 0.0000  6.735693  0.777771  6.564729
178  1 0.0000  6.735693  0.777771 10.940748
179  1 0.0000  6.735693  0.777771 15.316767
180  1 0.0000  6.735693  0.777771 19.692786
181  1 0.0000  5.388556  3.111083  2.188710
182  1 0.0000  5.388556  3.111083  6.564729
183  1 0.0000  5.388556  3.111083 10.940748
184  1 0.0000  5.388556  3.111083 15.316767
185  1 0.0000  5.388556  3.111083 19.692786
186  1 0.0000  4.041418  5.444394  2.188710
187  1 0.0000  4.041418  5.444394  6.564729
188  1 0.0000  4.041418  5.444394 10.940748
189  1 0.0000  4.041418  5.444394 15.316767
190  1 0.0000  4.041418  5.444394 19.692786
191  1 0.0000  2.694281  7.777706  2.188710
192  1 0.0000  2.694281  7.777706  6.564729
193  1 0.0000  2.694281  7.777706 10.940748
194  1 0.0000  2.694281  7.777706 15.316767
195  1 0.0000  2.694281  7.777706 19.692786
196  1 0.0000  1.347143 10.111018  2.188710
197  1 0.0000  1.347143 10.111018  6.564729
198  1 0.0000  1.347143 10.111018 10.940748
199  1 0.0000  1.347143 10.111018 15.316767
200  1 0.0000  1.347143 10.111018 19.692786
201  1 0.0000  9.429971  0.777771  2.188710
202  1 0.0000  9.429971  0.777771  6.564729
203  1 0.0000  9.429971  0.777771 10.940748
204  1 0.0000  9.429971  0.777771 15.316767
205  1 0.0000  9.429971  0.777771 19.692786
206  1 0.0000  8.082833  3.111083  2.188710
207  1 0.0000  8.082833  3.111083  6.564729
208  1 0.0000  8.082833  3.111083 10.940748
209  1 0.0000  8.082833  3.111083 15.316767
210  1 0.0000  8.082833  3.111083 19.692786
211  1 0.0000  6.735695  5.444394  2.188710
212  1 0.0000  6.735695  5.444394  6.564729
213  1 0.0000  6.735695  5.444394 10.940748
214  1 0.0000  6.735695  5.444394 15.316767
215  1 0.0000  6.735695  5.444394 19.692786
216  1 0.0000  5.388558  7.777706  2.188710
217  1 0.0000  5.388558  7.777706  6.564729
218  1 0.0000  5.388558  7.777706 10.940748
219  1 0.0000  5.388558  7.777706 15.316767
220  1 0.0000  5.388558  7.777706 19.692786
221  1 0.0000  4.041420 10.111018  2.188710
222  1 0.0000  4.041420 10.111018  6.564729
223  1 0.0000  4.041420 10.111018 10.940748
224  1 0.0000  4.041420 10.111018 15.316767
225  1 0.0000  4.041420 10.111018 19.692786
226  1 0.0000 12.124248  0.777771  2.188710
227  1 0.0000 12.124248  0.777771  6.564729
228  1 0.0000 12.124248  0.777771 10.940748
229  1 0.0000 12.124248  0.777771 15.316767
230  1 0.0000 12.124248  0.777771 19.692786
231  1 0.0000 10.777110  3.111083  2.188710
232  1 0.0000 10.777110  3.111083  6.564729
233  1 0.0000 10.777110  3.111083 10.940748
234  1 0.0000 10.777110  3.111083 15.316767
235  1 0.0000 10.777110  3.111083 19.692786
236  1 0.0000  9.429973  5.444394  2.188710
237  1 0.0000  9.429973  5.444394  6.564729
238  1 0.0000  9.429973  5.444394 10.940748
239  1 0.0000  9.429973  5.444394 15.316767
240  1 0.0000  9.429973  5.444394 19.692786
241  1 0.0000  8.082835  7.777706  2.188710
242  1 0.0000  8.082835  7.777706  6.564729
243  1 0.0000  8.082835  7.777706 10.940748
244  1 0.0000  8.082835  7.777706 15.316767
245  1 0.0000  8.082835  7.777706 19.692786
246  1 0.0000  6.735697 10.111018  2.188710
247  1 0.0000  6.735697 10.111018  6.564729
248  1 0.0000  6.735697 10.111018 10.940748
249  1 0.0000  6.735697 10.111018 15.316767
250  1 0.0000  6.735697 10.111018 19.692786
251  2 0.0000  0.000001  1.555541  1.651246
252  2 0.0000  0.000001  1.555541  6.027265
253  2 0.0000  0.000001  1.555541 10.403284
254  2 0.0000  0.000001  1.555541 14.779303
255  2 0.0000  0.000001  1.555541 19.155322
256  2 0.0000 -1.347137  3.888853  1.651246
257  2 0.0000 -1.347137  3.888853  6.027265
258  2 0.0000 -1.347137  3.888853 10.403284
259  2 0.0000 -1.347137  3.888853 14.779303
260  2 0.0000 -1.347137  3.888853 19.155322
261  2 0.0000 -2.694275  6.222165  1.651246
262  2 0.0000 -2.694275  6.222165  6.027265
263  2 0.0000 -2.694275  6.222165 10.403284
264  2 0.0000 -2.694275  6.222165 14.779303
265  2 0.0000 -2.694275  6.222165 19.155322
266  2 0.0000 -4.041412  8.555477  1.651246
267  2 0.0000 -4.041412  8.555477  6.027265
268  2 0.0000 -4.041412  8.555477 10.403284
269  2 0.0000 -4.041412  8.555477 14.779303
270  2 0.0000 -4.041412  8.555477 19.155322
271  2 0.0000 -5.388550 10.888789  1.651246
272  2 0.0000 -5.388550 10.888789  6.027265
273  2 0.0000 -5.388550 10.888789 10.403284
274  2 0.0000 -5.388550 10.888789 14.779303
275  2 0.0000 -5.388550 10.888789 19.155322
276  2 0.0000  2.694278  1.555541  1.651246
277  2 0.0000  2.694278  1.555541  6.027265
278  2 0.0000  2.694278  1.555541 10.403284
279  2 0.0000  2.694278  1.555541 14.779303
280  2 0.0000  2.694278  1.555541 19.155322
281  2 0.0000  1.347140  3.888853  1.651246
282  2 0.0000  1.347140  3.888853  6.027265
283  2 0.0000  1.347140  3.888853 10.403284
284  2 0.0000  1.347140  3.888853 14.779303
285  2 0.0000  1.347140  3.888853 19.155322
286  2 0.0000  0.000003  6.222165  1.651246
287  2 0.0000  0.000003  6.222165  6.027265
288  2 0.0000  0.000003  6.222165 10.403284
289  2 0.0000  0.000003  6.222165 14.779303
290  2 0.0000  0.000003  6.222165 19.155322
291  2 0.0000 -1.347135  8.555477  1.651246
292  2 0.0000 -1.347135  8.555477  6.027265
293  2 0.0000 -1.347135  8.555477 10.403284
294  2 0.0000 -1.347135  8.555477 14.779303
295  2 0.0000 -1.347135  8.555477 19.155322
296  2 0.0000 -2.694273 10.888789  1.651246
297  2 0.0000 -2.694273 10.888789  6.027265
298  2 0.0000 -2.694273 10.888789 10.403284
299  2 0.0000 -2.694273 10.888789 14.779303
300  2 0.0000 -2.694273 10.888789 19.155322
301  2 0.0000  5.388555  1.555541  1.651246
302  2 0.0000  5.388555  1.555541  6.027265
303  2 0.0000  5.388555  1.555541 10.403284
304  2 0.0000  5.388555  1.555541 14.779303
305  2 0.0000  5.388555  1.555541 19.155322
306  2 0.0000  4.041417  3.888853  1.651246
307  2 0.0000  4.041417  3.888853  6.027265
308  2 0.0000  4.041417  3.888853 10.403284
309  2 0.0000  4.041417  3.888853 14.779303
310  2 0.0000  4.041417  3.888853 19.155322
311  2 0.0000  2.694280  6.222165  1.651246
312  2 0.0000  2.694280  6.222165  6.027265
313  2 0.0000  2.694280  6.222165 10.403284
314  2 0.0000  2.694280  6.222165 14.779303
315  2 0.0000  2.694280  6.222165 19.155322
316  2 0.0000  1.347142  8.555477  1.651246
317  2 0.0000  1.347142  8.555477  6.027265
318  2 0.0000  1.347142  8.555477 10.403284
319  2 0.0000  1.347142  8.555477 14.779303
320  2 0.0000  1.347142  8.555477 19.155322
321  2 0.0000  0.000005 10.888789  1.651246
322  2 0.0000  0.000005 10.888789  6.027265
323  2 0.0000  0.000005 10.888789 10.403284
324  2 0.0000  0.000005 10.888789 14.779303
325  2 0.0000  0.000005 10.888789 19.155322
326  2 0.0000  8.082832  1.555541  1.651246
327  2 0.0000  8.082832  1.555541  6.027265
328  2 0.0000  8.082832  1.555541 10.403284
329  2 0.0000  8.082832  1.555541 14.779303
330  2 0.0000  8.082832  1.555541 19.155322
331  2 0.0000  6.735695  3.888853  1.651246
332  2 0.0000  6.735695  3.888853  6.027265
333  2 0.0000  6.735695  3.888853 10.403284
334  2 0.0000  6.735695  3.888853 14.779303
335  2 0.0000  6.735695  3.888853 19.155322
336  2 0.0000  5.388557  6.222165  1.651246
337  2 0.0000  5.388557  6.222165  6.027265
338  2 0.0000  5.388557  6.222165 10.403284
339  2 0.0000  5.388557  6.222165 14.779303
340  2 0.0000  5.388557  6.222165 19.155322
341  2 0.0000  4.041420  8.555477  1.651246
342  2 0.0000  4.041420  8.555477  6.027265
343  2 0.0000  4.041420  8.555477 10.403284
344  2 0.0000  4.041420  8.555477 14.779303
345  2 0.0000  4.041420  8.555477 19.155322
346  2 0.0000  2.694282 10.888789  1.651246
347  2 0.0000  2.694282 10.888789  6.027265
348  2 0.0000  2.694282 10.888789 10.403284
349  2 0.0000  2.694282 10.888789 14.779303
350  2 0.0000  2.694282 10.888789 19.155322
351  2 0.0000 10.777110  1.555541  1.651246
352  2 0.0000 10.777110  1.555541  6.027265
353  2 0.0000 10.777110  1.555541 10.403284
354  2 0.0000 10.777110  1.555541 14.779303
355  2 0.0000 10.777110  1.555541 19.155322
356  2 0.0000  9.429972  3.888853  1.651246
357  2 0.0000  9.429972  3.888853  6.027265
358  2 0.0000  9.429972  3.888853 10.403284
359  2 0.0000  9.429972  3.888853 14.779303
360  2 0.0000  9.429972  3.888853 19.155322
361  2 0.0000  8.082834  6.222165  1.651246
362  2 0.0000  8.082834  6.222165  6.027265
363  2 0.0000  8.082834  6.222165 10.403284
364  2 0.0000  8.082834  6.222165 14.779303
365  2 0.0000  8.082834  6.222165 19.155322
366  2 0.0000  6.735697  8.555477  1.651246
367  2 0.0000  6.735697  8.555477  6.027265
368  2 0.0000  6.735697  8.555477 10.403284
369  2 0.0000  6.735697  8.555477 14.779303
370  2 0.0000  6.735697  8.555477 19.155322
371  2 0.0000  5.388559 10.888789  1.651246
372  2 0.0000  5.388559 10.888789  6.027265
373  2 0.0000  5.388559 10.888789 10.403284
374  2 0.0000  5.388559 10.888789 14.779303
375  2 0.0000  5.388559 10.888789 19.155322
376  2 0.0000  1.347139  0.777771  3.839256
377  2 0.0000  1.347139  0.777771  8.215275
378  2 0.0000  1.347139  0.777771 12.591293
379  2 0.0000  1.347139  0.777771 16.967312
380  2 0.0000  1.347139  0.777771 21.343331
381  2 0.0000  0.000001  3.111083  3.839256
382  2 0.0000  0.000001  3.111083  8.215275
383  2 0.0000  0.000001  3.111083 12.591293
384  2 0.0000  0.000001  3.111083 16.967312
385  2 0.0000  0.000001  3.111083 21.343331
386  2 0.0000 -1.347136  5.444394  3.839256
387  2 0.0000 -1.347136  5.444394  8.215275
388  2 0.0000 -1.347136  5.444394 12.591293
389  2 0.0000 -1.347136  5.444394 16.967312
390  2 0.0000 -1.347136  5.444394 21.343331
391  2 0.0000 -2.694274  7.777706  3.839256
392  2 0.0000 -2.694274  7.777706  8.215275
393  2 0.0000 -2.694274  7.777706 12.591293
394  2 0.0000 -2.694274  7.777706 16.967312
395  2 0.0000 -2.694274  7.777706 21.343331
396  2 0.0000 -4.041411 10.111018  3.839256
397  2 0.0000 -4.041411 10.111018  8.215275
398  2 0.0000 -4.041411 10.111018 12.591293
399  2 0.0000 -4.041411 10.111018 16.967312
400  2 0.0000 -4.041411 10.111018 21.343331
401  2 0.0000  4.041416  0.777771  3.839256
402  2 0.0000  4.041416  0.777771  8.215275
403  2 0.0000  4.041416  0.777771 12.591293
404  2 0.0000  4.041416  0.777771 16.967312
405  2 0.0000  4.041416  0.777771 21.343331
406  2 0.0000  2.694279  3.111083  3.839256
407  2 0.0000  2.694279  3.111083  8.215275
408  2 0.0000  2.694279  3.111083 12.591293
409  2 0.0000  2.694279  3.111083 16.967312
410  2 0.0000  2.694279  3.111083 21.343331
411  2 0.0000  1.347141  5.444394  3.839256
412  2 0.0000  1.347141  5.444394  8.215275
413  2 0.0000  1.347141  5.444394 12.591293
414  2 0.0000  1.347141  5.444394 16.967312
415  2 0.0000  1.347141  5.444394 21.343331
416  2 0.0000  0.000003  7.777706  3.839256
417  2 0.0000  0.000003  7.777706  8.215275
418  2 0.0000  0.000003  7.777706 12.591293
419  2 0.0000  0.000003  7.777706 16.967312
420  2 0.0000  0.000003  7.777706 21.343331
421  2 0.0000 -1.347134 10.111018  3.839256
422  2 0.0000 -1.347134 10.111018  8.215275
423  2 0.0000 -1.347134 10.111018 12.591293
424  2 0.0000 -1.347134 10.111018 16.967312
425  2 0.0000 -1.347134 10.111018 21.343331
426  2 0.0000  6.735693  0.777771  3.839256
427  2 0.0000  6.735693  0.777771  8.215275
428  2 0.0000  6.735693  0.777771 12.591293
429  2 0.0000  6.735693  0.777771 16.967312
430  2 0.0000  6.735693  0.777771 21.343331
431  2 0.0000  5.388556  3.111083  3.839256
432  2 0.0000  5.388556  3.111083  8.215275
433  2 0.0000  5.388556  3.111083 12.591293
434  2 0.0000  5.388556  3.111083 16.967312
435  2 0.0000  5.388556  3.111083 21.343331
436  2 0.0000  4.041418  5.444394  3.839256
437  2 0.0000  4.041418  5.444394  8.215275
438  2 0.0000  4.041418  5.444394 12.591293
439  2 0.0000  4.041418  5.444394 16.967312
440  2 0.0000  4.041418  5.444394 21.343331
441  2 0.0000  2.694281  7.777706  3.839256
442  2 0.0000  2.694281  7.777706  8.215275
443  2 0.0000  2.694281  7.777706 12.591293
444  2 0.0000  2.694281  7.777706 16.967312
445  2 0.0000  2.694281  7.777706 21.343331
446  2 0.0000  1.347143 10.111018  3.839256
447  2 0.0000  1.347143 10.111018  8.215275
448  2 0.0000  1.347143 10.111018 12.591293
449  2 0.0000  1.347143 10.111018 16.967312
450  2 0.0000  1.347143 10.111018 21.343331
451  2 0.0000  9.429971  0.777771  3.839256
452  2 0.0000  9.429971  0.777771  8.215275
453  2 0.0000  9.429971  0.777771 12.591293
454  2 0.0000  9.429971  0.777771 16.967312
455  2 0.0000  9.429971  0.777771 21.343331
456  2 0.0000  8.082833  3.111083  3.839256
457  2 0.0000  8.082833  3.111083  8.215275
458  2 0.0000  8.082833  3.111083 12.591293
459  2 0.0000  8.082833  3.111083 16.967312
460  2 0.0000  8.082833  3.111083 21.343331
461  2 0.0000  6.735695  5.444394  3.839256
462  2 0.0000  6.735695  5.444394  8.215275
463  2 0.0000  6.735695  5.444394 12.591293
464  2 0.0000  6.735695  5.444394 16.967312
465  2 0.0000  6.735695  5.444394 21.343331
466  2 0.0000  5.388558  7.777706  3.839256
467  2 0.0000  5.388558  7.777706  8.215275
468  2 0.0000  5.388558  7.777706 12.591293
469  2 0.0000  5.388558  7.777706 16.967312
470  2 0.0000  5.388558  7.777706 21.343331
471  2 0.0000  4.041420 10.111018  3.839256
472  2 0.0000  4.041420 10.111018  8.215275
473  2 0.0000  4.041420 10.111018 12.591293
474  2 0.0000  4.041420 10.111018 16.967312
475  2 0.0000  4.041420 10.111018 21.343331
476  2 0.0000 12.124248  0.777771  3.839256
477  2 0.0000 12.124248  0.777771  8.215275
478  2 0.0000 12.124248  0.777771 12.591293
479  2 0.0000 12.124248  0.777771 16.967312
480  2 0.0000 12.124248  0.777771 21.343331
481  2 0.0000 10.777110  3.111083  3.839256
482  2 0.0000 10.777110  3.111083  8.215275
483  2 0.0000 10.777110  3.111083 12.591293
484  2 0.0000 10.777110  3.111083 16.967312
485  2 0.0000 10.777110  3.111083 21.343331
486  2 0.0000  9.429973  5.444394  3.839256
487  2 0.0000  9.429973  5.444394  8.215275
488  2 0.0000  9.429973  5.444394 12.591293
489  2 0.0000  9.429973  5.444394 16.967312
490  2 0.0000  9.429973  5.444394 21.343331
491  2 0.0000  8.082835  7.777706  3.839256
492  2 0.0000  8.082835  7.777706  8.215275
493  2 0.0000  8.082835  7.777706 12.591293
494  2 0.0000  8.082835  7.777706 16.967312
495  2 0.0000  8.082835  7.777706 21.343331
496  2 0.0000  6.735697 10.111018  3.839256
497  2 0.0000  6.735697 10.111018  8.215275
498  2 0.0000  6.735697 10.111018 12.591293
499  2 0.0000  6.735697 10.111018 16.967312
500  2 0.0000  6.735697 10.111018 21.343331

