Generated by pymatgen.io.lammps.data.LammpsData

500  atoms

  2  atom types

0.000000 12.511125  xlo xhi
0.000000 10.834956  ylo yhi
0.000000 33.828271  zlo zhi
-6.255565 0.000000 0.000000  xy xz yz

Masses

1  10.8110
2  14.0067

Atoms

1    1 0.0000  0.000000  0.000000  0.000000
2    1 0.0000  0.000000  0.000000  6.765654
3    1 0.0000  0.000000  0.000000 13.531308
4    1 0.0000  0.000000  0.000000 20.296963
5    1 0.0000  0.000000  0.000000 27.062617
6    1 0.0000 -1.251113  2.166991 -0.000000
7    1 0.0000 -1.251113  2.166991  6.765654
8    1 0.0000 -1.251113  2.166991 13.531308
9    1 0.0000 -1.251113  2.166991 20.296963
10   1 0.0000 -1.251113  2.166991 27.062617
11   1 0.0000 -2.502226  4.333983 -0.000000
12   1 0.0000 -2.502226  4.333983  6.765654
13   1 0.0000 -2.502226  4.333983 13.531308
14   1 0.0000 -2.502226  4.333983 20.296963
15   1 0.0000 -2.502226  4.333983 27.062617
16   1 0.0000 -3.753339  6.500974 -0.000000
17   1 0.0000 -3.753339  6.500974  6.765654
18   1 0.0000 -3.753339  6.500974 13.531308
19   1 0.0000 -3.753339  6.500974 20.296963
20   1 0.0000 -3.753339  6.500974 27.062617
21   1 0.0000  7.506673  8.667965 -0.000000
22   1 0.0000  7.506673  8.667965  6.765654
23   1 0.0000  7.506673  8.667965 13.531308
24   1 0.0000  7.506673  8.667965 20.296963
25   1 0.0000  7.506673  8.667965 27.062617
26   1 0.0000  2.502225 -0.000000  0.000000
27   1 0.0000  2.502225  0.000000  6.765654
28   1 0.0000  2.502225  0.000000 13.531308
29   1 0.0000  2.502225  0.000000 20.296963
30   1 0.0000  2.502225  0.000000 27.062617
31   1 0.0000  1.251112  2.166991 -0.000000
32   1 0.0000  1.251112  2.166991  6.765654
33   1 0.0000  1.251112  2.166991 13.531308
34   1 0.0000  1.251112  2.166991 20.296963
35   1 0.0000  1.251112  2.166991 27.062617
36   1 0.0000 -0.000001  4.333983 -0.000000
37   1 0.0000 -0.000001  4.333983  6.765654
38   1 0.0000 -0.000001  4.333983 13.531308
39   1 0.0000 -0.000001  4.333983 20.296963
40   1 0.0000 -0.000001  4.333983 27.062617
41   1 0.0000 -1.251114  6.500974 -0.000000
42   1 0.0000 -1.251114  6.500974  6.765654
43   1 0.0000 -1.251114  6.500974 13.531308
44   1 0.0000 -1.251114  6.500974 20.296963
45   1 0.0000 -1.251114  6.500974 27.062617
46   1 0.0000 -2.502227  8.667965 -0.000000
47   1 0.0000 -2.502227  8.667965  6.765654
48   1 0.0000 -2.502227  8.667965 13.531308
49   1 0.0000 -2.502227  8.667965 20.296963
50   1 0.0000 -2.502227  8.667965 27.062617
51   1 0.0000  5.004450 -0.000000  0.000000
52   1 0.0000  5.004450  0.000000  6.765654
53   1 0.0000  5.004450  0.000000 13.531308
54   1 0.0000  5.004450  0.000000 20.296963
55   1 0.0000  5.004450  0.000000 27.062617
56   1 0.0000  3.753337  2.166991 -0.000000
57   1 0.0000  3.753337  2.166991  6.765654
58   1 0.0000  3.753337  2.166991 13.531308
59   1 0.0000  3.753337  2.166991 20.296963
60   1 0.0000  3.753337  2.166991 27.062617
61   1 0.0000  2.502224  4.333983 -0.000000
62   1 0.0000  2.502224  4.333983  6.765654
63   1 0.0000  2.502224  4.333983 13.531308
64   1 0.0000  2.502224  4.333983 20.296963
65   1 0.0000  2.502224  4.333983 27.062617
66   1 0.0000  1.251111  6.500974 -0.000000
67   1 0.0000  1.251111  6.500974  6.765654
68   1 0.0000  1.251111  6.500974 13.531308
69   1 0.0000  1.251111  6.500974 20.296963
70   1 0.0000  1.251111  6.500974 27.062617
71   1 0.0000 -0.000002  8.667965 -0.000000
72   1 0.0000 -0.000002  8.667965  6.765654
73   1 0.0000 -0.000002  8.667965 13.531308
74   1 0.0000 -0.000002  8.667965 20.296963
75   1 0.0000 -0.000002  8.667965 27.062617
76   1 0.0000  7.506675 -0.000000  0.000000
77   1 0.0000  7.506675  0.000000  6.765654
78   1 0.0000  7.506675  0.000000 13.531308
79   1 0.0000  7.506675  0.000000 20.296963
80   1 0.0000  7.506675  0.000000 27.062617
81   1 0.0000  6.255562  2.166991 -0.000000
82   1 0.0000  6.255562  2.166991  6.765654
83   1 0.0000  6.255562  2.166991 13.531308
84   1 0.0000  6.255562  2.166991 20.296963
85   1 0.0000  6.255562  2.166991 27.062617
86   1 0.0000  5.004449  4.333983 -0.000000
87   1 0.0000  5.004449  4.333983  6.765654
88   1 0.0000  5.004449  4.333983 13.531308
89   1 0.0000  5.004449  4.333983 20.296963
90   1 0.0000  5.004449  4.333983 27.062617
91   1 0.0000  3.753336  6.500974 -0.000000
92   1 0.0000  3.753336  6.500974  6.765654
93   1 0.0000  3.753336  6.500974 13.531308
94   1 0.0000  3.753336  6.500974 20.296963
95   1 0.0000  3.753336  6.500974 27.062617
96   1 0.0000  2.502223  8.667965 -0.000000
97   1 0.0000  2.502223  8.667965  6.765654
98   1 0.0000  2.502223  8.667965 13.531308
99   1 0.0000  2.502223  8.667965 20.296963
100  1 0.0000  2.502223  8.667965 27.062617
101  1 0.0000 10.008900 -0.000000  0.000000
102  1 0.0000 10.008900  0.000000  6.765654
103  1 0.0000 10.008900  0.000000 13.531308
104  1 0.0000 10.008900  0.000000 20.296963
105  1 0.0000 10.008900  0.000000 27.062617
106  1 0.0000  8.757787  2.166991 -0.000000
107  1 0.0000  8.757787  2.166991  6.765654
108  1 0.0000  8.757787  2.166991 13.531308
109  1 0.0000  8.757787  2.166991 20.296963
110  1 0.0000  8.757787  2.166991 27.062617
111  1 0.0000  7.506674  4.333983 -0.000000
112  1 0.0000  7.506674  4.333983  6.765654
113  1 0.0000  7.506674  4.333983 13.531308
114  1 0.0000  7.506674  4.333983 20.296963
115  1 0.0000  7.506674  4.333983 27.062617
116  1 0.0000  6.255561  6.500974 -0.000000
117  1 0.0000  6.255561  6.500974  6.765654
118  1 0.0000  6.255561  6.500974 13.531308
119  1 0.0000  6.255561  6.500974 20.296963
120  1 0.0000  6.255561  6.500974 27.062617
121  1 0.0000  5.004448  8.667965 -0.000000
122  1 0.0000  5.004448  8.667965  6.765654
123  1 0.0000  5.004448  8.667965 13.531308
124  1 0.0000  5.004448  8.667965 20.296963
125  1 0.0000  5.004448  8.667965 27.062617
126  1 0.0000 -0.000000  1.444661  3.382827
127  1 0.0000 -0.000000  1.444661 10.148481
128  1 0.0000 -0.000000  1.444661 16.914136
129  1 0.0000 -0.000000  1.444661 23.679790
130  1 0.0000 -0.000000  1.444661 30.445444
131  1 0.0000 -1.251113  3.611652  3.382827
132  1 0.0000 -1.251113  3.611652 10.148481
133  1 0.0000 -1.251113  3.611652 16.914136
134  1 0.0000 -1.251113  3.611652 23.679790
135  1 0.0000 -1.251113  3.611652 30.445444
136  1 0.0000 -2.502226  5.778643  3.382827
137  1 0.0000 -2.502226  5.778643 10.148481
138  1 0.0000 -2.502226  5.778643 16.914136
139  1 0.0000 -2.502226  5.778643 23.679790
140  1 0.0000 -2.502226  5.778643 30.445444
141  1 0.0000 -3.753339  7.945635  3.382827
142  1 0.0000 -3.753339  7.945635 10.148481
143  1 0.0000 -3.753339  7.945635 16.914136
144  1 0.0000 -3.753339  7.945635 23.679790
145  1 0.0000 -3.753339  7.945635 30.445444
146  1 0.0000 -5.004452 10.112626  3.382827
147  1 0.0000 -5.004452 10.112626 10.148481
148  1 0.0000 -5.004452 10.112626 16.914136
149  1 0.0000 -5.004452 10.112626 23.679790
150  1 0.0000 -5.004452 10.112626 30.445444
151  1 0.0000  2.502225  1.444661  3.382827
152  1 0.0000  2.502225  1.444661 10.148481
153  1 0.0000  2.502225  1.444661 16.914136
154  1 0.0000  2.502225  1.444661 23.679790
155  1 0.0000  2.502225  1.444661 30.445444
156  1 0.0000  1.251112  3.611652  3.382827
157  1 0.0000  1.251112  3.611652 10.148481
158  1 0.0000  1.251112  3.611652 16.914136
159  1 0.0000  1.251112  3.611652 23.679790
160  1 0.0000  1.251112  3.611652 30.445444
161  1 0.0000 -0.000001  5.778643  3.382827
162  1 0.0000 -0.000001  5.778643 10.148481
163  1 0.0000 -0.000001  5.778643 16.914136
164  1 0.0000 -0.000001  5.778643 23.679790
165  1 0.0000 -0.000001  5.778643 30.445444
166  1 0.0000 -1.251114  7.945635  3.382827
167  1 0.0000 -1.251114  7.945635 10.148481
168  1 0.0000 -1.251114  7.945635 16.914136
169  1 0.0000 -1.251114  7.945635 23.679790
170  1 0.0000 -1.251114  7.945635 30.445444
171  1 0.0000 -2.502227 10.112626  3.382827
172  1 0.0000 -2.502227 10.112626 10.148481
173  1 0.0000 -2.502227 10.112626 16.914136
174  1 0.0000 -2.502227 10.112626 23.679790
175  1 0.0000 -2.502227 10.112626 30.445444
176  1 0.0000  5.004450  1.444661  3.382827
177  1 0.0000  5.004450  1.444661 10.148481
178  1 0.0000  5.004450  1.444661 16.914136
179  1 0.0000  5.004450  1.444661 23.679790
180  1 0.0000  5.004450  1.444661 30.445444
181  1 0.0000  3.753337  3.611652  3.382827
182  1 0.0000  3.753337  3.611652 10.148481
183  1 0.0000  3.753337  3.611652 16.914136
184  1 0.0000  3.753337  3.611652 23.679790
185  1 0.0000  3.753337  3.611652 30.445444
186  1 0.0000  2.502224  5.778643  3.382827
187  1 0.0000  2.502224  5.778643 10.148481
188  1 0.0000  2.502224  5.778643 16.914136
189  1 0.0000  2.502224  5.778643 23.679790
190  1 0.0000  2.502224  5.778643 30.445444
191  1 0.0000  1.251111  7.945635  3.382827
192  1 0.0000  1.251111  7.945635 10.148481
193  1 0.0000  1.251111  7.945635 16.914136
194  1 0.0000  1.251111  7.945635 23.679790
195  1 0.0000  1.251111  7.945635 30.445444
196  1 0.0000 -0.000002 10.112626  3.382827
197  1 0.0000 -0.000002 10.112626 10.148481
198  1 0.0000 -0.000002 10.112626 16.914136
199  1 0.0000 -0.000002 10.112626 23.679790
200  1 0.0000 -0.000002 10.112626 30.445444
201  1 0.0000  7.506675  1.444661  3.382827
202  1 0.0000  7.506675  1.444661 10.148481
203  1 0.0000  7.506675  1.444661 16.914136
204  1 0.0000  7.506675  1.444661 23.679790
205  1 0.0000  7.506675  1.444661 30.445444
206  1 0.0000  6.255562  3.611652  3.382827
207  1 0.0000  6.255562  3.611652 10.148481
208  1 0.0000  6.255562  3.611652 16.914136
209  1 0.0000  6.255562  3.611652 23.679790
210  1 0.0000  6.255562  3.611652 30.445444
211  1 0.0000  5.004449  5.778643  3.382827
212  1 0.0000  5.004449  5.778643 10.148481
213  1 0.0000  5.004449  5.778643 16.914136
214  1 0.0000  5.004449  5.778643 23.679790
215  1 0.0000  5.004449  5.778643 30.445444
216  1 0.0000  3.753336  7.945635  3.382827
217  1 0.0000  3.753336  7.945635 10.148481
218  1 0.0000  3.753336  7.945635 16.914136
219  1 0.0000  3.753336  7.945635 23.679790
220  1 0.0000  3.753336  7.945635 30.445444
221  1 0.0000  2.502223 10.112626  3.382827
222  1 0.0000  2.502223 10.112626 10.148481
223  1 0.0000  2.502223 10.112626 16.914136
224  1 0.0000  2.502223 10.112626 23.679790
225  1 0.0000  2.502223 10.112626 30.445444
226  1 0.0000 10.008900  1.444661  3.382827
227  1 0.0000 10.008900  1.444661 10.148481
228  1 0.0000 10.008900  1.444661 16.914136
229  1 0.0000 10.008900  1.444661 23.679790
230  1 0.0000 10.008900  1.444661 30.445444
231  1 0.0000  8.757787  3.611652  3.382827
232  1 0.0000  8.757787  3.611652 10.148481
233  1 0.0000  8.757787  3.611652 16.914136
234  1 0.0000  8.757787  3.611652 23.679790
235  1 0.0000  8.757787  3.611652 30.445444
236  1 0.0000  7.506674  5.778643  3.382827
237  1 0.0000  7.506674  5.778643 10.148481
238  1 0.0000  7.506674  5.778643 16.914136
239  1 0.0000  7.506674  5.778643 23.679790
240  1 0.0000  7.506674  5.778643 30.445444
241  1 0.0000  6.255561  7.945635  3.382827
242  1 0.0000  6.255561  7.945635 10.148481
243  1 0.0000  6.255561  7.945635 16.914136
244  1 0.0000  6.255561  7.945635 23.679790
245  1 0.0000  6.255561  7.945635 30.445444
246  1 0.0000  5.004448 10.112626  3.382827
247  1 0.0000  5.004448 10.112626 10.148481
248  1 0.0000  5.004448 10.112626 16.914136
249  1 0.0000  5.004448 10.112626 23.679790
250  1 0.0000  5.004448 10.112626 30.445444
251  2 0.0000 -0.000000  1.444661 -0.000000
252  2 0.0000 -0.000000  1.444661  6.765654
253  2 0.0000 -0.000000  1.444661 13.531308
254  2 0.0000 -0.000000  1.444661 20.296963
255  2 0.0000 -0.000000  1.444661 27.062617
256  2 0.0000 -1.251113  3.611652 -0.000000
257  2 0.0000 -1.251113  3.611652  6.765654
258  2 0.0000 -1.251113  3.611652 13.531308
259  2 0.0000 -1.251113  3.611652 20.296963
260  2 0.0000 -1.251113  3.611652 27.062617
261  2 0.0000 -2.502226  5.778643 -0.000000
262  2 0.0000 -2.502226  5.778643  6.765654
263  2 0.0000 -2.502226  5.778643 13.531308
264  2 0.0000 -2.502226  5.778643 20.296963
265  2 0.0000 -2.502226  5.778643 27.062617
266  2 0.0000 -3.753339  7.945635 -0.000000
267  2 0.0000 -3.753339  7.945635  6.765654
268  2 0.0000 -3.753339  7.945635 13.531308
269  2 0.0000 -3.753339  7.945635 20.296963
270  2 0.0000 -3.753339  7.945635 27.062617
271  2 0.0000 -5.004452 10.112626 -0.000000
272  2 0.0000 -5.004452 10.112626  6.765654
273  2 0.0000 -5.004452 10.112626 13.531308
274  2 0.0000 -5.004452 10.112626 20.296963
275  2 0.0000 -5.004452 10.112626 27.062617
276  2 0.0000  2.502225  1.444661 -0.000000
277  2 0.0000  2.502225  1.444661  6.765654
278  2 0.0000  2.502225  1.444661 13.531308
279  2 0.0000  2.502225  1.444661 20.296963
280  2 0.0000  2.502225  1.444661 27.062617
281  2 0.0000  1.251112  3.611652 -0.000000
282  2 0.0000  1.251112  3.611652  6.765654
283  2 0.0000  1.251112  3.611652 13.531308
284  2 0.0000  1.251112  3.611652 20.296963
285  2 0.0000  1.251112  3.611652 27.062617
286  2 0.0000 -0.000001  5.778643 -0.000000
287  2 0.0000 -0.000001  5.778643  6.765654
288  2 0.0000 -0.000001  5.778643 13.531308
289  2 0.0000 -0.000001  5.778643 20.296963
290  2 0.0000 -0.000001  5.778643 27.062617
291  2 0.0000 -1.251114  7.945635 -0.000000
292  2 0.0000 -1.251114  7.945635  6.765654
293  2 0.0000 -1.251114  7.945635 13.531308
294  2 0.0000 -1.251114  7.945635 20.296963
295  2 0.0000 -1.251114  7.945635 27.062617
296  2 0.0000 -2.502227 10.112626 -0.000000
297  2 0.0000 -2.502227 10.112626  6.765654
298  2 0.0000 -2.502227 10.112626 13.531308
299  2 0.0000 -2.502227 10.112626 20.296963
300  2 0.0000 -2.502227 10.112626 27.062617
301  2 0.0000  5.004450  1.444661 -0.000000
302  2 0.0000  5.004450  1.444661  6.765654
303  2 0.0000  5.004450  1.444661 13.531308
304  2 0.0000  5.004450  1.444661 20.296963
305  2 0.0000  5.004450  1.444661 27.062617
306  2 0.0000  3.753337  3.611652 -0.000000
307  2 0.0000  3.753337  3.611652  6.765654
308  2 0.0000  3.753337  3.611652 13.531308
309  2 0.0000  3.753337  3.611652 20.296963
310  2 0.0000  3.753337  3.611652 27.062617
311  2 0.0000  2.502224  5.778643 -0.000000
312  2 0.0000  2.502224  5.778643  6.765654
313  2 0.0000  2.502224  5.778643 13.531308
314  2 0.0000  2.502224  5.778643 20.296963
315  2 0.0000  2.502224  5.778643 27.062617
316  2 0.0000  1.251111  7.945635 -0.000000
317  2 0.0000  1.251111  7.945635  6.765654
318  2 0.0000  1.251111  7.945635 13.531308
319  2 0.0000  1.251111  7.945635 20.296963
320  2 0.0000  1.251111  7.945635 27.062617
321  2 0.0000 -0.000002 10.112626 -0.000000
322  2 0.0000 -0.000002 10.112626  6.765654
323  2 0.0000 -0.000002 10.112626 13.531308
324  2 0.0000 -0.000002 10.112626 20.296963
325  2 0.0000 -0.000002 10.112626 27.062617
326  2 0.0000  7.506675  1.444661 -0.000000
327  2 0.0000  7.506675  1.444661  6.765654
328  2 0.0000  7.506675  1.444661 13.531308
329  2 0.0000  7.506675  1.444661 20.296963
330  2 0.0000  7.506675  1.444661 27.062617
331  2 0.0000  6.255562  3.611652 -0.000000
332  2 0.0000  6.255562  3.611652  6.765654
333  2 0.0000  6.255562  3.611652 13.531308
334  2 0.0000  6.255562  3.611652 20.296963
335  2 0.0000  6.255562  3.611652 27.062617
336  2 0.0000  5.004449  5.778643 -0.000000
337  2 0.0000  5.004449  5.778643  6.765654
338  2 0.0000  5.004449  5.778643 13.531308
339  2 0.0000  5.004449  5.778643 20.296963
340  2 0.0000  5.004449  5.778643 27.062617
341  2 0.0000  3.753336  7.945635 -0.000000
342  2 0.0000  3.753336  7.945635  6.765654
343  2 0.0000  3.753336  7.945635 13.531308
344  2 0.0000  3.753336  7.945635 20.296963
345  2 0.0000  3.753336  7.945635 27.062617
346  2 0.0000  2.502223 10.112626 -0.000000
347  2 0.0000  2.502223 10.112626  6.765654
348  2 0.0000  2.502223 10.112626 13.531308
349  2 0.0000  2.502223 10.112626 20.296963
350  2 0.0000  2.502223 10.112626 27.062617
351  2 0.0000 10.008900  1.444661 -0.000000
352  2 0.0000 10.008900  1.444661  6.765654
353  2 0.0000 10.008900  1.444661 13.531308
354  2 0.0000 10.008900  1.444661 20.296963
355  2 0.0000 10.008900  1.444661 27.062617
356  2 0.0000  8.757787  3.611652 -0.000000
357  2 0.0000  8.757787  3.611652  6.765654
358  2 0.0000  8.757787  3.611652 13.531308
359  2 0.0000  8.757787  3.611652 20.296963
360  2 0.0000  8.757787  3.611652 27.062617
361  2 0.0000  7.506674  5.778643 -0.000000
362  2 0.0000  7.506674  5.778643  6.765654
363  2 0.0000  7.506674  5.778643 13.531308
364  2 0.0000  7.506674  5.778643 20.296963
365  2 0.0000  7.506674  5.778643 27.062617
366  2 0.0000  6.255561  7.945635 -0.000000
367  2 0.0000  6.255561  7.945635  6.765654
368  2 0.0000  6.255561  7.945635 13.531308
369  2 0.0000  6.255561  7.945635 20.296963
370  2 0.0000  6.255561  7.945635 27.062617
371  2 0.0000  5.004448 10.112626 -0.000000
372  2 0.0000  5.004448 10.112626  6.765654
373  2 0.0000  5.004448 10.112626 13.531308
374  2 0.0000  5.004448 10.112626 20.296963
375  2 0.0000  5.004448 10.112626 27.062617
376  2 0.0000  1.251112  0.722330  3.382827
377  2 0.0000  1.251112  0.722330 10.148481
378  2 0.0000  1.251112  0.722330 16.914136
379  2 0.0000  1.251112  0.722330 23.679790
380  2 0.0000  1.251112  0.722330 30.445444
381  2 0.0000 -0.000001  2.889322  3.382827
382  2 0.0000 -0.000001  2.889322 10.148481
383  2 0.0000 -0.000001  2.889322 16.914136
384  2 0.0000 -0.000001  2.889322 23.679790
385  2 0.0000 -0.000001  2.889322 30.445444
386  2 0.0000 -1.251114  5.056313  3.382827
387  2 0.0000 -1.251114  5.056313 10.148481
388  2 0.0000 -1.251114  5.056313 16.914136
389  2 0.0000 -1.251114  5.056313 23.679790
390  2 0.0000 -1.251114  5.056313 30.445444
391  2 0.0000 -2.502227  7.223304  3.382827
392  2 0.0000 -2.502227  7.223304 10.148481
393  2 0.0000 -2.502227  7.223304 16.914136
394  2 0.0000 -2.502227  7.223304 23.679790
395  2 0.0000 -2.502227  7.223304 30.445444
396  2 0.0000 -3.753340  9.390295  3.382827
397  2 0.0000 -3.753340  9.390295 10.148481
398  2 0.0000 -3.753340  9.390295 16.914136
399  2 0.0000 -3.753340  9.390295 23.679790
400  2 0.0000 -3.753340  9.390295 30.445444
401  2 0.0000  3.753337  0.722330  3.382827
402  2 0.0000  3.753337  0.722330 10.148481
403  2 0.0000  3.753337  0.722330 16.914136
404  2 0.0000  3.753337  0.722330 23.679790
405  2 0.0000  3.753337  0.722330 30.445444
406  2 0.0000  2.502224  2.889322  3.382827
407  2 0.0000  2.502224  2.889322 10.148481
408  2 0.0000  2.502224  2.889322 16.914136
409  2 0.0000  2.502224  2.889322 23.679790
410  2 0.0000  2.502224  2.889322 30.445444
411  2 0.0000  1.251111  5.056313  3.382827
412  2 0.0000  1.251111  5.056313 10.148481
413  2 0.0000  1.251111  5.056313 16.914136
414  2 0.0000  1.251111  5.056313 23.679790
415  2 0.0000  1.251111  5.056313 30.445444
416  2 0.0000 -0.000002  7.223304  3.382827
417  2 0.0000 -0.000002  7.223304 10.148481
418  2 0.0000 -0.000002  7.223304 16.914136
419  2 0.0000 -0.000002  7.223304 23.679790
420  2 0.0000 -0.000002  7.223304 30.445444
421  2 0.0000 -1.251115  9.390295  3.382827
422  2 0.0000 -1.251115  9.390295 10.148481
423  2 0.0000 -1.251115  9.390295 16.914136
424  2 0.0000 -1.251115  9.390295 23.679790
425  2 0.0000 -1.251115  9.390295 30.445444
426  2 0.0000  6.255563  0.722330  3.382827
427  2 0.0000  6.255563  0.722330 10.148481
428  2 0.0000  6.255563  0.722330 16.914136
429  2 0.0000  6.255563  0.722330 23.679790
430  2 0.0000  6.255563  0.722330 30.445444
431  2 0.0000  5.004449  2.889322  3.382827
432  2 0.0000  5.004449  2.889322 10.148481
433  2 0.0000  5.004449  2.889322 16.914136
434  2 0.0000  5.004449  2.889322 23.679790
435  2 0.0000  5.004449  2.889322 30.445444
436  2 0.0000  3.753336  5.056313  3.382827
437  2 0.0000  3.753336  5.056313 10.148481
438  2 0.0000  3.753336  5.056313 16.914136
439  2 0.0000  3.753336  5.056313 23.679790
440  2 0.0000  3.753336  5.056313 30.445444
441  2 0.0000  2.502223  7.223304  3.382827
442  2 0.0000  2.502223  7.223304 10.148481
443  2 0.0000  2.502223  7.223304 16.914136
444  2 0.0000  2.502223  7.223304 23.679790
445  2 0.0000  2.502223  7.223304 30.445444
446  2 0.0000  1.251110  9.390295  3.382827
447  2 0.0000  1.251110  9.390295 10.148481
448  2 0.0000  1.251110  9.390295 16.914136
449  2 0.0000  1.251110  9.390295 23.679790
450  2 0.0000  1.251110  9.390295 30.445444
451  2 0.0000  8.757788  0.722330  3.382827
452  2 0.0000  8.757788  0.722330 10.148481
453  2 0.0000  8.757788  0.722330 16.914136
454  2 0.0000  8.757788  0.722330 23.679790
455  2 0.0000  8.757788  0.722330 30.445444
456  2 0.0000  7.506675  2.889322  3.382827
457  2 0.0000  7.506675  2.889322 10.148481
458  2 0.0000  7.506675  2.889322 16.914136
459  2 0.0000  7.506675  2.889322 23.679790
460  2 0.0000  7.506675  2.889322 30.445444
461  2 0.0000  6.255562  5.056313  3.382827
462  2 0.0000  6.255562  5.056313 10.148481
463  2 0.0000  6.255562  5.056313 16.914136
464  2 0.0000  6.255562  5.056313 23.679790
465  2 0.0000  6.255562  5.056313 30.445444
466  2 0.0000  5.004448  7.223304  3.382827
467  2 0.0000  5.004448  7.223304 10.148481
468  2 0.0000  5.004448  7.223304 16.914136
469  2 0.0000  5.004448  7.223304 23.679790
470  2 0.0000  5.004448  7.223304 30.445444
471  2 0.0000  3.753335  9.390295  3.382827
472  2 0.0000  3.753335  9.390295 10.148481
473  2 0.0000  3.753335  9.390295 16.914136
474  2 0.0000  3.753335  9.390295 23.679790
475  2 0.0000  3.753335  9.390295 30.445444
476  2 0.0000 11.260013  0.722330  3.382827
477  2 0.0000 11.260013  0.722330 10.148481
478  2 0.0000 11.260013  0.722330 16.914136
479  2 0.0000 11.260013  0.722330 23.679790
480  2 0.0000 11.260013  0.722330 30.445444
481  2 0.0000 10.008900  2.889322  3.382827
482  2 0.0000 10.008900  2.889322 10.148481
483  2 0.0000 10.008900  2.889322 16.914136
484  2 0.0000 10.008900  2.889322 23.679790
485  2 0.0000 10.008900  2.889322 30.445444
486  2 0.0000  8.757787  5.056313  3.382827
487  2 0.0000  8.757787  5.056313 10.148481
488  2 0.0000  8.757787  5.056313 16.914136
489  2 0.0000  8.757787  5.056313 23.679790
490  2 0.0000  8.757787  5.056313 30.445444
491  2 0.0000  7.506674  7.223304  3.382827
492  2 0.0000  7.506674  7.223304 10.148481
493  2 0.0000  7.506674  7.223304 16.914136
494  2 0.0000  7.506674  7.223304 23.679790
495  2 0.0000  7.506674  7.223304 30.445444
496  2 0.0000  6.255561  9.390295  3.382827
497  2 0.0000  6.255561  9.390295 10.148481
498  2 0.0000  6.255561  9.390295 16.914136
499  2 0.0000  6.255561  9.390295 23.679790
500  2 0.0000  6.255561  9.390295 30.445444

