Generated by pymatgen.io.lammps.data.LammpsData

1250  atoms

   3  atom types

0.000000 31.792239  xlo xhi
0.000000 23.012101  ylo yhi
0.000000 21.006777  zlo zhi
21.936032 21.936023 9.395322  xy xz yz

Masses

1  40.0780
2  12.0107
3  15.9994

Atoms

1     1 0.0000  7.566429  3.240742  2.100678
2     1 0.0000 11.953634  5.119807  6.302033
3     1 0.0000 16.340839  6.998871 10.503388
4     1 0.0000 20.728043  8.877936 14.704744
5     1 0.0000 25.115248 10.757000 18.906099
6     1 0.0000 11.953636  7.843163  2.100678
7     1 0.0000 16.340840  9.722227  6.302033
8     1 0.0000 20.728045 11.601291 10.503388
9     1 0.0000 25.115250 13.480356 14.704744
10    1 0.0000 29.502454 15.359420 18.906099
11    1 0.0000 16.340842 12.445583  2.100678
12    1 0.0000 20.728047 14.324647  6.302033
13    1 0.0000 25.115251 16.203712 10.503388
14    1 0.0000 29.502456 18.082776 14.704744
15    1 0.0000 33.889661 19.961841 18.906099
16    1 0.0000 20.728048 17.048003  2.100678
17    1 0.0000 25.115253 18.927067  6.302033
18    1 0.0000 29.502458 20.806132 10.503388
19    1 0.0000 33.889662 22.685196 14.704744
20    1 0.0000 38.276867 24.564261 18.906099
21    1 0.0000 25.115255 21.650423  2.100678
22    1 0.0000 29.502459 23.529488  6.302033
23    1 0.0000 33.889664 25.408552 10.503388
24    1 0.0000 38.276869 27.287617 14.704744
25    1 0.0000 42.664073 29.166681 18.906099
26    1 0.0000 13.924877  3.240742  2.100678
27    1 0.0000 18.312082  5.119807  6.302033
28    1 0.0000 22.699287  6.998871 10.503388
29    1 0.0000 27.086491  8.877936 14.704744
30    1 0.0000 31.473696 10.757000 18.906099
31    1 0.0000 18.312084  7.843163  2.100678
32    1 0.0000 22.699288  9.722227  6.302033
33    1 0.0000 27.086493 11.601291 10.503388
34    1 0.0000 31.473698 13.480356 14.704744
35    1 0.0000 35.860902 15.359420 18.906099
36    1 0.0000 22.699290 12.445583  2.100678
37    1 0.0000 27.086495 14.324647  6.302033
38    1 0.0000 31.473699 16.203712 10.503388
39    1 0.0000 35.860904 18.082776 14.704744
40    1 0.0000 40.248109 19.961841 18.906099
41    1 0.0000 27.086496 17.048003  2.100678
42    1 0.0000 31.473701 18.927067  6.302033
43    1 0.0000 35.860906 20.806132 10.503388
44    1 0.0000 40.248110 22.685196 14.704744
45    1 0.0000 44.635315 24.564261 18.906099
46    1 0.0000 31.473703 21.650423  2.100678
47    1 0.0000 35.860907 23.529488  6.302033
48    1 0.0000 40.248112 25.408552 10.503388
49    1 0.0000 44.635317 27.287617 14.704744
50    1 0.0000 49.022521 29.166681 18.906099
51    1 0.0000 20.283325  3.240742  2.100678
52    1 0.0000 24.670530  5.119807  6.302033
53    1 0.0000 29.057734  6.998871 10.503388
54    1 0.0000 33.444939  8.877936 14.704744
55    1 0.0000 37.832144 10.757000 18.906099
56    1 0.0000 24.670531  7.843163  2.100678
57    1 0.0000 29.057736  9.722227  6.302033
58    1 0.0000 33.444941 11.601291 10.503388
59    1 0.0000 37.832145 13.480356 14.704744
60    1 0.0000 42.219350 15.359420 18.906099
61    1 0.0000 29.057738 12.445583  2.100678
62    1 0.0000 33.444942 14.324647  6.302033
63    1 0.0000 37.832147 16.203712 10.503388
64    1 0.0000 42.219352 18.082776 14.704744
65    1 0.0000 46.606556 19.961841 18.906099
66    1 0.0000 33.444944 17.048003  2.100678
67    1 0.0000 37.832149 18.927067  6.302033
68    1 0.0000 42.219353 20.806132 10.503388
69    1 0.0000 46.606558 22.685196 14.704744
70    1 0.0000 50.993763 24.564261 18.906099
71    1 0.0000 37.832150 21.650423  2.100678
72    1 0.0000 42.219355 23.529488  6.302033
73    1 0.0000 46.606560 25.408552 10.503388
74    1 0.0000 50.993764 27.287617 14.704744
75    1 0.0000 55.380969 29.166681 18.906099
76    1 0.0000 26.641773  3.240742  2.100678
77    1 0.0000 31.028978  5.119807  6.302033
78    1 0.0000 35.416182  6.998871 10.503388
79    1 0.0000 39.803387  8.877936 14.704744
80    1 0.0000 44.190591 10.757000 18.906099
81    1 0.0000 31.028979  7.843163  2.100678
82    1 0.0000 35.416184  9.722227  6.302033
83    1 0.0000 39.803389 11.601291 10.503388
84    1 0.0000 44.190593 13.480356 14.704744
85    1 0.0000 48.577798 15.359420 18.906099
86    1 0.0000 35.416186 12.445583  2.100678
87    1 0.0000 39.803390 14.324647  6.302033
88    1 0.0000 44.190595 16.203712 10.503388
89    1 0.0000 48.577800 18.082776 14.704744
90    1 0.0000 52.965004 19.961841 18.906099
91    1 0.0000 39.803392 17.048003  2.100678
92    1 0.0000 44.190597 18.927067  6.302033
93    1 0.0000 48.577801 20.806132 10.503388
94    1 0.0000 52.965006 22.685196 14.704744
95    1 0.0000 57.352211 24.564261 18.906099
96    1 0.0000 44.190598 21.650423  2.100678
97    1 0.0000 48.577803 23.529488  6.302033
98    1 0.0000 52.965008 25.408552 10.503388
99    1 0.0000 57.352212 27.287617 14.704744
100   1 0.0000 61.739417 29.166681 18.906099
101   1 0.0000 33.000221  3.240742  2.100678
102   1 0.0000 37.387425  5.119807  6.302033
103   1 0.0000 41.774630  6.998871 10.503388
104   1 0.0000 46.161835  8.877936 14.704744
105   1 0.0000 50.549039 10.757000 18.906099
106   1 0.0000 37.387427  7.843163  2.100678
107   1 0.0000 41.774632  9.722227  6.302033
108   1 0.0000 46.161836 11.601291 10.503388
109   1 0.0000 50.549041 13.480356 14.704744
110   1 0.0000 54.936246 15.359420 18.906099
111   1 0.0000 41.774633 12.445583  2.100678
112   1 0.0000 46.161838 14.324647  6.302033
113   1 0.0000 50.549043 16.203712 10.503388
114   1 0.0000 54.936247 18.082776 14.704744
115   1 0.0000 59.323452 19.961841 18.906099
116   1 0.0000 46.161840 17.048003  2.100678
117   1 0.0000 50.549044 18.927067  6.302033
118   1 0.0000 54.936249 20.806132 10.503388
119   1 0.0000 59.323454 22.685196 14.704744
120   1 0.0000 63.710658 24.564261 18.906099
121   1 0.0000 50.549046 21.650423  2.100678
122   1 0.0000 54.936251 23.529488  6.302033
123   1 0.0000 59.323455 25.408552 10.503388
124   1 0.0000 63.710660 27.287617 14.704744
125   1 0.0000 68.097865 29.166681 18.906099
126   1 0.0000  0.000000  0.000000  0.000000
127   1 0.0000  4.387205  1.879064  4.201355
128   1 0.0000  8.774409  3.758129  8.402711
129   1 0.0000 13.161614  5.637193 12.604066
130   1 0.0000 17.548819  7.516258 16.805421
131   1 0.0000  4.387206  4.602420 -0.000000
132   1 0.0000  8.774411  6.481485  4.201355
133   1 0.0000 13.161616  8.360549  8.402711
134   1 0.0000 17.548820 10.239614 12.604066
135   1 0.0000 21.936025 12.118678 16.805421
136   1 0.0000  8.774413  9.204840 -0.000000
137   1 0.0000 13.161617 11.083905  4.201355
138   1 0.0000 17.548822 12.962969  8.402711
139   1 0.0000 21.936027 14.842034 12.604066
140   1 0.0000 26.323231 16.721098 16.805421
141   1 0.0000 13.161619 13.807261 -0.000000
142   1 0.0000 17.548824 15.686325  4.201355
143   1 0.0000 21.936028 17.565390  8.402711
144   1 0.0000 26.323233 19.444454 12.604066
145   1 0.0000 30.710438 21.323518 16.805421
146   1 0.0000 17.548825 18.409681 -0.000000
147   1 0.0000 21.936030 20.288745  4.201355
148   1 0.0000 26.323235 22.167810  8.402711
149   1 0.0000 30.710439 24.046874 12.604066
150   1 0.0000 35.097644 25.925939 16.805421
151   1 0.0000  6.358448 -0.000000  0.000000
152   1 0.0000 10.745652  1.879064  4.201355
153   1 0.0000 15.132857  3.758129  8.402711
154   1 0.0000 19.520062  5.637193 12.604066
155   1 0.0000 23.907266  7.516258 16.805421
156   1 0.0000 10.745654  4.602420  0.000000
157   1 0.0000 15.132859  6.481485  4.201355
158   1 0.0000 19.520063  8.360549  8.402711
159   1 0.0000 23.907268 10.239614 12.604066
160   1 0.0000 28.294473 12.118678 16.805421
161   1 0.0000 15.132861  9.204840 -0.000000
162   1 0.0000 19.520065 11.083905  4.201355
163   1 0.0000 23.907270 12.962969  8.402711
164   1 0.0000 28.294474 14.842034 12.604066
165   1 0.0000 32.681679 16.721098 16.805421
166   1 0.0000 19.520067 13.807261 -0.000000
167   1 0.0000 23.907272 15.686325  4.201355
168   1 0.0000 28.294476 17.565390  8.402711
169   1 0.0000 32.681681 19.444454 12.604066
170   1 0.0000 37.068885 21.323518 16.805421
171   1 0.0000 23.907273 18.409681 -0.000000
172   1 0.0000 28.294478 20.288745  4.201355
173   1 0.0000 32.681683 22.167810  8.402711
174   1 0.0000 37.068887 24.046874 12.604066
175   1 0.0000 41.456092 25.925939 16.805421
176   1 0.0000 12.716896 -0.000000  0.000000
177   1 0.0000 17.104100  1.879064  4.201355
178   1 0.0000 21.491305  3.758129  8.402711
179   1 0.0000 25.878510  5.637193 12.604066
180   1 0.0000 30.265714  7.516258 16.805421
181   1 0.0000 17.104102  4.602420 -0.000000
182   1 0.0000 21.491307  6.481485  4.201355
183   1 0.0000 25.878511  8.360549  8.402711
184   1 0.0000 30.265716 10.239614 12.604066
185   1 0.0000 34.652921 12.118678 16.805421
186   1 0.0000 21.491308  9.204840  0.000000
187   1 0.0000 25.878513 11.083905  4.201355
188   1 0.0000 30.265718 12.962969  8.402711
189   1 0.0000 34.652922 14.842034 12.604066
190   1 0.0000 39.040127 16.721098 16.805421
191   1 0.0000 25.878515 13.807261 -0.000000
192   1 0.0000 30.265719 15.686325  4.201355
193   1 0.0000 34.652924 17.565390  8.402711
194   1 0.0000 39.040129 19.444454 12.604066
195   1 0.0000 43.427333 21.323518 16.805421
196   1 0.0000 52.201744 27.805003 21.006777
197   1 0.0000 34.652926 20.288745  4.201355
198   1 0.0000 39.040130 22.167810  8.402711
199   1 0.0000 43.427335 24.046874 12.604066
200   1 0.0000 47.814540 25.925939 16.805421
201   1 0.0000 19.075343 -0.000000  0.000000
202   1 0.0000 23.462548  1.879064  4.201355
203   1 0.0000 27.849753  3.758129  8.402711
204   1 0.0000 32.236957  5.637193 12.604066
205   1 0.0000 36.624162  7.516258 16.805421
206   1 0.0000 45.398573 13.997742 21.006777
207   1 0.0000 27.849754  6.481485  4.201355
208   1 0.0000 32.236959  8.360549  8.402711
209   1 0.0000 36.624164 10.239614 12.604066
210   1 0.0000 41.011368 12.118678 16.805421
211   1 0.0000 27.849756  9.204840  0.000000
212   1 0.0000 32.236961 11.083905  4.201355
213   1 0.0000 36.624165 12.962969  8.402711
214   1 0.0000 41.011370 14.842034 12.604066
215   1 0.0000 45.398575 16.721098 16.805421
216   1 0.0000 32.236963 13.807261  0.000000
217   1 0.0000 36.624167 15.686325  4.201355
218   1 0.0000 41.011372 17.565390  8.402711
219   1 0.0000 45.398576 19.444454 12.604066
220   1 0.0000 49.785781 21.323518 16.805421
221   1 0.0000 36.624169 18.409681 -0.000000
222   1 0.0000 41.011374 20.288745  4.201355
223   1 0.0000 45.398578 22.167810  8.402711
224   1 0.0000 49.785783 24.046874 12.604066
225   1 0.0000 54.172987 25.925939 16.805421
226   1 0.0000 47.369815  9.395322 21.006777
227   1 0.0000 29.820996  1.879064  4.201355
228   1 0.0000 34.208201  3.758129  8.402711
229   1 0.0000 38.595405  5.637193 12.604066
230   1 0.0000 42.982610  7.516258 16.805421
231   1 0.0000 51.757021 13.997742 21.006777
232   1 0.0000 34.208202  6.481485  4.201355
233   1 0.0000 38.595407  8.360549  8.402711
234   1 0.0000 42.982612 10.239614 12.604066
235   1 0.0000 47.369816 12.118678 16.805421
236   1 0.0000 56.144227 18.600163 21.006777
237   1 0.0000 38.595409 11.083905  4.201355
238   1 0.0000 42.982613 12.962969  8.402711
239   1 0.0000 47.369818 14.842034 12.604066
240   1 0.0000 51.757023 16.721098 16.805421
241   1 0.0000 60.531434 23.202583 21.006777
242   1 0.0000 42.982615 15.686325  4.201355
243   1 0.0000 47.369820 17.565390  8.402711
244   1 0.0000 51.757024 19.444454 12.604066
245   1 0.0000 56.144229 21.323518 16.805421
246   1 0.0000 42.982617 18.409681  0.000000
247   1 0.0000 47.369821 20.288745  4.201355
248   1 0.0000 51.757026 22.167810  8.402711
249   1 0.0000 56.144231 24.046874 12.604066
250   1 0.0000 60.531435 25.925939 16.805421
251   2 0.0000 11.349644  4.861113  3.151016
252   2 0.0000 15.736849  6.740178  7.352372
253   2 0.0000 20.124053  8.619242 11.553727
254   2 0.0000 24.511258 10.498307 15.755082
255   2 0.0000 28.898463 12.377371 19.956438
256   2 0.0000 15.736850  9.463534  3.151016
257   2 0.0000 20.124055 11.342598  7.352372
258   2 0.0000 24.511260 13.221663 11.553727
259   2 0.0000 28.898464 15.100727 15.755082
260   2 0.0000 33.285669 16.979791 19.956438
261   2 0.0000 20.124057 14.065954  3.151016
262   2 0.0000 24.511261 15.945018  7.352372
263   2 0.0000 28.898466 17.824083 11.553727
264   2 0.0000 33.285671 19.703147 15.755082
265   2 0.0000 37.672875 21.582212 19.956438
266   2 0.0000 24.511263 18.668374  3.151016
267   2 0.0000 28.898468 20.547439  7.352372
268   2 0.0000 33.285672 22.426503 11.553727
269   2 0.0000 37.672877 24.305567 15.755082
270   2 0.0000 42.060082 26.184632 19.956438
271   2 0.0000 28.898469 23.270794  3.151016
272   2 0.0000 33.285674 25.149859  7.352372
273   2 0.0000 37.672879 27.028923 11.553727
274   2 0.0000 42.060083 28.907988 15.755082
275   2 0.0000 46.447288 30.787052 19.956438
276   2 0.0000 17.708092  4.861113  3.151016
277   2 0.0000 22.095297  6.740178  7.352372
278   2 0.0000 26.482501  8.619242 11.553727
279   2 0.0000 30.869706 10.498307 15.755082
280   2 0.0000 35.256911 12.377371 19.956438
281   2 0.0000 22.095298  9.463534  3.151016
282   2 0.0000 26.482503 11.342598  7.352372
283   2 0.0000 30.869708 13.221663 11.553727
284   2 0.0000 35.256912 15.100727 15.755082
285   2 0.0000 39.644117 16.979791 19.956438
286   2 0.0000 26.482505 14.065954  3.151016
287   2 0.0000 30.869709 15.945018  7.352372
288   2 0.0000 35.256914 17.824083 11.553727
289   2 0.0000 39.644119 19.703147 15.755082
290   2 0.0000 44.031323 21.582212 19.956438
291   2 0.0000 30.869711 18.668374  3.151016
292   2 0.0000 35.256916 20.547439  7.352372
293   2 0.0000 39.644120 22.426503 11.553727
294   2 0.0000 44.031325 24.305567 15.755082
295   2 0.0000 48.418530 26.184632 19.956438
296   2 0.0000 35.256917 23.270794  3.151016
297   2 0.0000 39.644122 25.149859  7.352372
298   2 0.0000 44.031327 27.028923 11.553727
299   2 0.0000 48.418531 28.907988 15.755082
300   2 0.0000 52.805736 30.787052 19.956438
301   2 0.0000 24.066540  4.861113  3.151016
302   2 0.0000 28.453744  6.740178  7.352372
303   2 0.0000 32.840949  8.619242 11.553727
304   2 0.0000 37.228154 10.498307 15.755082
305   2 0.0000 41.615358 12.377371 19.956438
306   2 0.0000 28.453746  9.463534  3.151016
307   2 0.0000 32.840951 11.342598  7.352372
308   2 0.0000 37.228155 13.221663 11.553727
309   2 0.0000 41.615360 15.100727 15.755082
310   2 0.0000 46.002565 16.979791 19.956438
311   2 0.0000 32.840952 14.065954  3.151016
312   2 0.0000 37.228157 15.945018  7.352372
313   2 0.0000 41.615362 17.824083 11.553727
314   2 0.0000 46.002566 19.703147 15.755082
315   2 0.0000 50.389771 21.582212 19.956438
316   2 0.0000 37.228159 18.668374  3.151016
317   2 0.0000 41.615363 20.547439  7.352372
318   2 0.0000 46.002568 22.426503 11.553727
319   2 0.0000 50.389773 24.305567 15.755082
320   2 0.0000 54.776977 26.184632 19.956438
321   2 0.0000 41.615365 23.270794  3.151016
322   2 0.0000 46.002570 25.149859  7.352372
323   2 0.0000 50.389774 27.028923 11.553727
324   2 0.0000 54.776979 28.907988 15.755082
325   2 0.0000 59.164184 30.787052 19.956438
326   2 0.0000 30.424988  4.861113  3.151016
327   2 0.0000 34.812192  6.740178  7.352372
328   2 0.0000 39.199397  8.619242 11.553727
329   2 0.0000 43.586602 10.498307 15.755082
330   2 0.0000 47.973806 12.377371 19.956438
331   2 0.0000 34.812194  9.463534  3.151016
332   2 0.0000 39.199399 11.342598  7.352372
333   2 0.0000 43.586603 13.221663 11.553727
334   2 0.0000 47.973808 15.100727 15.755082
335   2 0.0000 52.361013 16.979791 19.956438
336   2 0.0000 39.199400 14.065954  3.151016
337   2 0.0000 43.586605 15.945018  7.352372
338   2 0.0000 47.973810 17.824083 11.553727
339   2 0.0000 52.361014 19.703147 15.755082
340   2 0.0000 56.748219 21.582212 19.956438
341   2 0.0000 43.586607 18.668374  3.151016
342   2 0.0000 47.973811 20.547439  7.352372
343   2 0.0000 52.361016 22.426503 11.553727
344   2 0.0000 56.748221 24.305567 15.755082
345   2 0.0000 61.135425 26.184632 19.956438
346   2 0.0000 47.973813 23.270794  3.151016
347   2 0.0000 52.361018 25.149859  7.352372
348   2 0.0000 56.748222 27.028923 11.553727
349   2 0.0000 61.135427 28.907988 15.755082
350   2 0.0000 65.522632 30.787052 19.956438
351   2 0.0000 36.783435  4.861113  3.151016
352   2 0.0000 41.170640  6.740178  7.352372
353   2 0.0000 45.557845  8.619242 11.553727
354   2 0.0000 49.945049 10.498307 15.755082
355   2 0.0000 54.332254 12.377371 19.956438
356   2 0.0000 41.170642  9.463534  3.151016
357   2 0.0000 45.557846 11.342598  7.352372
358   2 0.0000 49.945051 13.221663 11.553727
359   2 0.0000 54.332256 15.100727 15.755082
360   2 0.0000 58.719460 16.979791 19.956438
361   2 0.0000 45.557848 14.065954  3.151016
362   2 0.0000 49.945053 15.945018  7.352372
363   2 0.0000 54.332257 17.824083 11.553727
364   2 0.0000 58.719462 19.703147 15.755082
365   2 0.0000 63.106667 21.582212 19.956438
366   2 0.0000 49.945054 18.668374  3.151016
367   2 0.0000 54.332259 20.547439  7.352372
368   2 0.0000 58.719464 22.426503 11.553727
369   2 0.0000 63.106668 24.305567 15.755082
370   2 0.0000 67.493873 26.184632 19.956438
371   2 0.0000 54.332261 23.270794  3.151016
372   2 0.0000 58.719465 25.149859  7.352372
373   2 0.0000 63.106670 27.028923 11.553727
374   2 0.0000 67.493875 28.907988 15.755082
375   2 0.0000 71.881079 30.787052 19.956438
376   2 0.0000  3.783215  1.620371  1.050339
377   2 0.0000  8.170419  3.499436  5.251694
378   2 0.0000 12.557624  5.378500  9.453049
379   2 0.0000 16.944829  7.257564 13.654405
380   2 0.0000 21.332033  9.136629 17.855760
381   2 0.0000  8.170421  6.222791  1.050339
382   2 0.0000 12.557626  8.101856  5.251694
383   2 0.0000 16.944830  9.980920  9.453049
384   2 0.0000 21.332035 11.859985 13.654405
385   2 0.0000 25.719240 13.739049 17.855760
386   2 0.0000 12.557627 10.825212  1.050339
387   2 0.0000 16.944832 12.704276  5.251694
388   2 0.0000 21.332037 14.583340  9.453049
389   2 0.0000 25.719241 16.462405 13.654405
390   2 0.0000 30.106446 18.341469 17.855760
391   2 0.0000 16.944834 15.427632  1.050339
392   2 0.0000 21.332038 17.306696  5.251694
393   2 0.0000 25.719243 19.185761  9.453049
394   2 0.0000 30.106448 21.064825 13.654405
395   2 0.0000 34.493652 22.943890 17.855760
396   2 0.0000 21.332040 20.030052  1.050339
397   2 0.0000 25.719245 21.909116  5.251694
398   2 0.0000 30.106449 23.788181  9.453049
399   2 0.0000 34.493654 25.667245 13.654405
400   2 0.0000 38.880859 27.546310 17.855760
401   2 0.0000 10.141663  1.620371  1.050339
402   2 0.0000 14.528867  3.499436  5.251694
403   2 0.0000 18.916072  5.378500  9.453049
404   2 0.0000 23.303276  7.257564 13.654405
405   2 0.0000 27.690481  9.136629 17.855760
406   2 0.0000 14.528869  6.222791  1.050339
407   2 0.0000 18.916074  8.101856  5.251694
408   2 0.0000 23.303278  9.980920  9.453049
409   2 0.0000 27.690483 11.859985 13.654405
410   2 0.0000 32.077687 13.739049 17.855760
411   2 0.0000 18.916075 10.825212  1.050339
412   2 0.0000 23.303280 12.704276  5.251694
413   2 0.0000 27.690485 14.583340  9.453049
414   2 0.0000 32.077689 16.462405 13.654405
415   2 0.0000 36.464894 18.341469 17.855760
416   2 0.0000 23.303282 15.427632  1.050339
417   2 0.0000 27.690486 17.306696  5.251694
418   2 0.0000 32.077691 19.185761  9.453049
419   2 0.0000 36.464896 21.064825 13.654405
420   2 0.0000 40.852100 22.943890 17.855760
421   2 0.0000 27.690488 20.030052  1.050339
422   2 0.0000 32.077693 21.909116  5.251694
423   2 0.0000 36.464897 23.788181  9.453049
424   2 0.0000 40.852102 25.667245 13.654405
425   2 0.0000 45.239307 27.546310 17.855760
426   2 0.0000 16.500110  1.620371  1.050339
427   2 0.0000 20.887315  3.499436  5.251694
428   2 0.0000 25.274520  5.378500  9.453049
429   2 0.0000 29.661724  7.257564 13.654405
430   2 0.0000 34.048929  9.136629 17.855760
431   2 0.0000 20.887317  6.222791  1.050339
432   2 0.0000 25.274521  8.101856  5.251694
433   2 0.0000 29.661726  9.980920  9.453049
434   2 0.0000 34.048931 11.859985 13.654405
435   2 0.0000 38.436135 13.739049 17.855760
436   2 0.0000 25.274523 10.825212  1.050339
437   2 0.0000 29.661728 12.704276  5.251694
438   2 0.0000 34.048932 14.583340  9.453049
439   2 0.0000 38.436137 16.462405 13.654405
440   2 0.0000 42.823342 18.341469 17.855760
441   2 0.0000 29.661729 15.427632  1.050339
442   2 0.0000 34.048934 17.306696  5.251694
443   2 0.0000 38.436139 19.185761  9.453049
444   2 0.0000 42.823343 21.064825 13.654405
445   2 0.0000 47.210548 22.943890 17.855760
446   2 0.0000 34.048936 20.030052  1.050339
447   2 0.0000 38.436140 21.909116  5.251694
448   2 0.0000 42.823345 23.788181  9.453049
449   2 0.0000 47.210550 25.667245 13.654405
450   2 0.0000 51.597754 27.546310 17.855760
451   2 0.0000 22.858558  1.620371  1.050339
452   2 0.0000 27.245763  3.499436  5.251694
453   2 0.0000 31.632967  5.378500  9.453049
454   2 0.0000 36.020172  7.257564 13.654405
455   2 0.0000 40.407377  9.136629 17.855760
456   2 0.0000 27.245765  6.222791  1.050339
457   2 0.0000 31.632969  8.101856  5.251694
458   2 0.0000 36.020174  9.980920  9.453049
459   2 0.0000 40.407378 11.859985 13.654405
460   2 0.0000 44.794583 13.739049 17.855760
461   2 0.0000 31.632971 10.825212  1.050339
462   2 0.0000 36.020176 12.704276  5.251694
463   2 0.0000 40.407380 14.583340  9.453049
464   2 0.0000 44.794585 16.462405 13.654405
465   2 0.0000 49.181789 18.341469 17.855760
466   2 0.0000 36.020177 15.427632  1.050339
467   2 0.0000 40.407382 17.306696  5.251694
468   2 0.0000 44.794587 19.185761  9.453049
469   2 0.0000 49.181791 21.064825 13.654405
470   2 0.0000 53.568996 22.943890 17.855760
471   2 0.0000 40.407384 20.030052  1.050339
472   2 0.0000 44.794588 21.909116  5.251694
473   2 0.0000 49.181793 23.788181  9.453049
474   2 0.0000 53.568998 25.667245 13.654405
475   2 0.0000 57.956202 27.546310 17.855760
476   2 0.0000 29.217006  1.620371  1.050339
477   2 0.0000 33.604211  3.499436  5.251694
478   2 0.0000 37.991415  5.378500  9.453049
479   2 0.0000 42.378620  7.257564 13.654405
480   2 0.0000 46.765825  9.136629 17.855760
481   2 0.0000 33.604212  6.222791  1.050339
482   2 0.0000 37.991417  8.101856  5.251694
483   2 0.0000 42.378622  9.980920  9.453049
484   2 0.0000 46.765826 11.859985 13.654405
485   2 0.0000 51.153031 13.739049 17.855760
486   2 0.0000 37.991419 10.825212  1.050339
487   2 0.0000 42.378623 12.704276  5.251694
488   2 0.0000 46.765828 14.583340  9.453049
489   2 0.0000 51.153033 16.462405 13.654405
490   2 0.0000 55.540237 18.341469 17.855760
491   2 0.0000 42.378625 15.427632  1.050339
492   2 0.0000 46.765830 17.306696  5.251694
493   2 0.0000 51.153034 19.185761  9.453049
494   2 0.0000 55.540239 21.064825 13.654405
495   2 0.0000 59.927444 22.943890 17.855760
496   2 0.0000 46.765831 20.030052  1.050339
497   2 0.0000 51.153036 21.909116  5.251694
498   2 0.0000 55.540241 23.788181  9.453049
499   2 0.0000 59.927445 25.667245 13.654405
500   2 0.0000 64.314650 27.546310 17.855760
501   3 0.0000  6.962439  2.279880  0.032906
502   3 0.0000 11.349644  4.158944  4.234262
503   3 0.0000 15.736848  6.038009  8.435617
504   3 0.0000 20.124053  7.917073 12.636972
505   3 0.0000 24.511258  9.796138 16.838327
506   3 0.0000 11.349645  6.882300  0.032906
507   3 0.0000 15.736850  8.761365  4.234262
508   3 0.0000 20.124055 10.640429  8.435617
509   3 0.0000 24.511259 12.519494 12.636972
510   3 0.0000 28.898464 14.398558 16.838327
511   3 0.0000 15.736852 11.484720  0.032906
512   3 0.0000 20.124056 13.363785  4.234262
513   3 0.0000 24.511261 15.242849  8.435617
514   3 0.0000 28.898466 17.121914 12.636972
515   3 0.0000 33.285670 19.000978 16.838327
516   3 0.0000 20.124058 16.087141  0.032906
517   3 0.0000 24.511263 17.966205  4.234262
518   3 0.0000 28.898467 19.845270  8.435617
519   3 0.0000 33.285672 21.724334 12.636972
520   3 0.0000 37.672877 23.603398 16.838327
521   3 0.0000 24.511264 20.689561  0.032906
522   3 0.0000 28.898469 22.568625  4.234262
523   3 0.0000 33.285674 24.447690  8.435617
524   3 0.0000 37.672878 26.326754 12.636972
525   3 0.0000 42.060083 28.205819 16.838327
526   3 0.0000 13.320887  2.279880  0.032906
527   3 0.0000 17.708092  4.158944  4.234262
528   3 0.0000 22.095296  6.038009  8.435617
529   3 0.0000 26.482501  7.917073 12.636972
530   3 0.0000 30.869705  9.796138 16.838327
531   3 0.0000 17.708093  6.882300  0.032906
532   3 0.0000 22.095298  8.761365  4.234262
533   3 0.0000 26.482503 10.640429  8.435617
534   3 0.0000 30.869707 12.519494 12.636972
535   3 0.0000 35.256912 14.398558 16.838327
536   3 0.0000 22.095300 11.484720  0.032906
537   3 0.0000 26.482504 13.363785  4.234262
538   3 0.0000 30.869709 15.242849  8.435617
539   3 0.0000 35.256913 17.121914 12.636972
540   3 0.0000 39.644118 19.000978 16.838327
541   3 0.0000 26.482506 16.087141  0.032906
542   3 0.0000 30.869711 17.966205  4.234262
543   3 0.0000 35.256915 19.845270  8.435617
544   3 0.0000 39.644120 21.724334 12.636972
545   3 0.0000 44.031324 23.603398 16.838327
546   3 0.0000 30.869712 20.689561  0.032906
547   3 0.0000 35.256917 22.568625  4.234262
548   3 0.0000 39.644122 24.447690  8.435617
549   3 0.0000 44.031326 26.326754 12.636972
550   3 0.0000 48.418531 28.205819 16.838327
551   3 0.0000 19.679335  2.279880  0.032906
552   3 0.0000 24.066539  4.158944  4.234262
553   3 0.0000 28.453744  6.038009  8.435617
554   3 0.0000 32.840949  7.917073 12.636972
555   3 0.0000 37.228153  9.796138 16.838327
556   3 0.0000 24.066541  6.882300  0.032906
557   3 0.0000 28.453746  8.761365  4.234262
558   3 0.0000 32.840950 10.640429  8.435617
559   3 0.0000 37.228155 12.519494 12.636972
560   3 0.0000 41.615360 14.398558 16.838327
561   3 0.0000 28.453747 11.484720  0.032906
562   3 0.0000 32.840952 13.363785  4.234262
563   3 0.0000 37.228157 15.242849  8.435617
564   3 0.0000 41.615361 17.121914 12.636972
565   3 0.0000 46.002566 19.000978 16.838327
566   3 0.0000 32.840954 16.087141  0.032906
567   3 0.0000 37.228158 17.966205  4.234262
568   3 0.0000 41.615363 19.845270  8.435617
569   3 0.0000 46.002568 21.724334 12.636972
570   3 0.0000 50.389772 23.603398 16.838327
571   3 0.0000 37.228160 20.689561  0.032906
572   3 0.0000 41.615365 22.568625  4.234262
573   3 0.0000 46.002569 24.447690  8.435617
574   3 0.0000 50.389774 26.326754 12.636972
575   3 0.0000 54.776979 28.205819 16.838327
576   3 0.0000 26.037783  2.279880  0.032906
577   3 0.0000 30.424987  4.158944  4.234262
578   3 0.0000 34.812192  6.038009  8.435617
579   3 0.0000 39.199396  7.917073 12.636972
580   3 0.0000 43.586601  9.796138 16.838327
581   3 0.0000 30.424989  6.882300  0.032906
582   3 0.0000 34.812194  8.761365  4.234262
583   3 0.0000 39.199398 10.640429  8.435617
584   3 0.0000 43.586603 12.519494 12.636972
585   3 0.0000 47.973807 14.398558 16.838327
586   3 0.0000 34.812195 11.484720  0.032906
587   3 0.0000 39.199400 13.363785  4.234262
588   3 0.0000 43.586605 15.242849  8.435617
589   3 0.0000 47.973809 17.121914 12.636972
590   3 0.0000 52.361014 19.000978 16.838327
591   3 0.0000 39.199402 16.087141  0.032906
592   3 0.0000 43.586606 17.966205  4.234262
593   3 0.0000 47.973811 19.845270  8.435617
594   3 0.0000 52.361015 21.724334 12.636972
595   3 0.0000 56.748220 23.603398 16.838327
596   3 0.0000 43.586608 20.689561  0.032906
597   3 0.0000 47.973813 22.568625  4.234262
598   3 0.0000 52.361017 24.447690  8.435617
599   3 0.0000 56.748222 26.326754 12.636972
600   3 0.0000 61.135426 28.205819 16.838327
601   3 0.0000 32.396230  2.279880  0.032906
602   3 0.0000 36.783435  4.158944  4.234262
603   3 0.0000 41.170640  6.038009  8.435617
604   3 0.0000 45.557844  7.917073 12.636972
605   3 0.0000 49.945049  9.796138 16.838327
606   3 0.0000 36.783437  6.882300  0.032906
607   3 0.0000 41.170641  8.761365  4.234262
608   3 0.0000 45.557846 10.640429  8.435617
609   3 0.0000 49.945051 12.519494 12.636972
610   3 0.0000 54.332255 14.398558 16.838327
611   3 0.0000 41.170643 11.484720  0.032906
612   3 0.0000 45.557848 13.363785  4.234262
613   3 0.0000 49.945052 15.242849  8.435617
614   3 0.0000 54.332257 17.121914 12.636972
615   3 0.0000 58.719462 19.000978 16.838327
616   3 0.0000 45.557849 16.087141  0.032906
617   3 0.0000 49.945054 17.966205  4.234262
618   3 0.0000 54.332259 19.845270  8.435617
619   3 0.0000 58.719463 21.724334 12.636972
620   3 0.0000 63.106668 23.603398 16.838327
621   3 0.0000 49.945056 20.689561  0.032906
622   3 0.0000 54.332260 22.568625  4.234262
623   3 0.0000 58.719465 24.447690  8.435617
624   3 0.0000 63.106670 26.326754 12.636972
625   3 0.0000 67.493874 28.205819 16.838327
626   3 0.0000  5.499446  4.376630  2.067771
627   3 0.0000  9.886651  6.255694  6.269127
628   3 0.0000 14.273856  8.134759 10.470482
629   3 0.0000 18.661060 10.013823 14.671837
630   3 0.0000 23.048265 11.892888 18.873193
631   3 0.0000  9.886653  8.979050  2.067771
632   3 0.0000 14.273857 10.858115  6.269127
633   3 0.0000 18.661062 12.737179 10.470482
634   3 0.0000 23.048267 14.616244 14.671837
635   3 0.0000 27.435471 16.495308 18.873193
636   3 0.0000 14.273859 13.581470  2.067771
637   3 0.0000 18.661064 15.460535  6.269127
638   3 0.0000 23.048268 17.339599 10.470482
639   3 0.0000 27.435473 19.218664 14.671837
640   3 0.0000 31.822678 21.097728 18.873193
641   3 0.0000 18.661065 18.183891  2.067771
642   3 0.0000 23.048270 20.062955  6.269127
643   3 0.0000 27.435475 21.942020 10.470482
644   3 0.0000 31.822679 23.821084 14.671837
645   3 0.0000 36.209884 25.700148 18.873193
646   3 0.0000 23.048272 22.786311  2.067771
647   3 0.0000 27.435476 24.665375  6.269127
648   3 0.0000 31.822681 26.544440 10.470482
649   3 0.0000 36.209886 28.423504 14.671837
650   3 0.0000 40.597090 30.302569 18.873193
651   3 0.0000 11.857894  4.376630  2.067771
652   3 0.0000 16.245099  6.255694  6.269127
653   3 0.0000 20.632304  8.134759 10.470482
654   3 0.0000 25.019508 10.013823 14.671837
655   3 0.0000 29.406713 11.892888 18.873193
656   3 0.0000 16.245101  8.979050  2.067771
657   3 0.0000 20.632305 10.858115  6.269127
658   3 0.0000 25.019510 12.737179 10.470482
659   3 0.0000 29.406715 14.616244 14.671837
660   3 0.0000 33.793919 16.495308 18.873193
661   3 0.0000 20.632307 13.581470  2.067771
662   3 0.0000 25.019512 15.460535  6.269127
663   3 0.0000 29.406716 17.339599 10.470482
664   3 0.0000 33.793921 19.218664 14.671837
665   3 0.0000 38.181126 21.097728 18.873193
666   3 0.0000 25.019513 18.183891  2.067771
667   3 0.0000 29.406718 20.062955  6.269127
668   3 0.0000 33.793923 21.942020 10.470482
669   3 0.0000 38.181127 23.821084 14.671837
670   3 0.0000 42.568332 25.700148 18.873193
671   3 0.0000 29.406720 22.786311  2.067771
672   3 0.0000 33.793924 24.665375  6.269127
673   3 0.0000 38.181129 26.544440 10.470482
674   3 0.0000 42.568334 28.423504 14.671837
675   3 0.0000 46.955538 30.302569 18.873193
676   3 0.0000 18.216342  4.376630  2.067771
677   3 0.0000 22.603547  6.255694  6.269127
678   3 0.0000 26.990751  8.134759 10.470482
679   3 0.0000 31.377956 10.013823 14.671837
680   3 0.0000 35.765161 11.892888 18.873193
681   3 0.0000 22.603548  8.979050  2.067771
682   3 0.0000 26.990753 10.858115  6.269127
683   3 0.0000 31.377958 12.737179 10.470482
684   3 0.0000 35.765162 14.616244 14.671837
685   3 0.0000 40.152367 16.495308 18.873193
686   3 0.0000 26.990755 13.581470  2.067771
687   3 0.0000 31.377959 15.460535  6.269127
688   3 0.0000 35.765164 17.339599 10.470482
689   3 0.0000 40.152369 19.218664 14.671837
690   3 0.0000 44.539573 21.097728 18.873193
691   3 0.0000 31.377961 18.183891  2.067771
692   3 0.0000 35.765166 20.062955  6.269127
693   3 0.0000 40.152370 21.942020 10.470482
694   3 0.0000 44.539575 23.821084 14.671837
695   3 0.0000 48.926780 25.700148 18.873193
696   3 0.0000 35.765167 22.786311  2.067771
697   3 0.0000 40.152372 24.665375  6.269127
698   3 0.0000 44.539577 26.544440 10.470482
699   3 0.0000 48.926781 28.423504 14.671837
700   3 0.0000 53.313986 30.302569 18.873193
701   3 0.0000 24.574790  4.376630  2.067771
702   3 0.0000 28.961995  6.255694  6.269127
703   3 0.0000 33.349199  8.134759 10.470482
704   3 0.0000 37.736404 10.013823 14.671837
705   3 0.0000 42.123609 11.892888 18.873193
706   3 0.0000 28.961996  8.979050  2.067771
707   3 0.0000 33.349201 10.858115  6.269127
708   3 0.0000 37.736406 12.737179 10.470482
709   3 0.0000 42.123610 14.616244 14.671837
710   3 0.0000 46.510815 16.495308 18.873193
711   3 0.0000 33.349203 13.581470  2.067771
712   3 0.0000 37.736407 15.460535  6.269127
713   3 0.0000 42.123612 17.339599 10.470482
714   3 0.0000 46.510817 19.218664 14.671837
715   3 0.0000 50.898021 21.097728 18.873193
716   3 0.0000 37.736409 18.183891  2.067771
717   3 0.0000 42.123614 20.062955  6.269127
718   3 0.0000 46.510818 21.942020 10.470482
719   3 0.0000 50.898023 23.821084 14.671837
720   3 0.0000 55.285228 25.700148 18.873193
721   3 0.0000 42.123615 22.786311  2.067771
722   3 0.0000 46.510820 24.665375  6.269127
723   3 0.0000 50.898025 26.544440 10.470482
724   3 0.0000 55.285229 28.423504 14.671837
725   3 0.0000 59.672434 30.302569 18.873193
726   3 0.0000 30.933238  4.376630  2.067771
727   3 0.0000 35.320442  6.255694  6.269127
728   3 0.0000 39.707647  8.134759 10.470482
729   3 0.0000 44.094852 10.013823 14.671837
730   3 0.0000 48.482056 11.892888 18.873193
731   3 0.0000 35.320444  8.979050  2.067771
732   3 0.0000 39.707649 10.858115  6.269127
733   3 0.0000 44.094853 12.737179 10.470482
734   3 0.0000 48.482058 14.616244 14.671837
735   3 0.0000 52.869263 16.495308 18.873193
736   3 0.0000 39.707650 13.581470  2.067771
737   3 0.0000 44.094855 15.460535  6.269127
738   3 0.0000 48.482060 17.339599 10.470482
739   3 0.0000 52.869264 19.218664 14.671837
740   3 0.0000 57.256469 21.097728 18.873193
741   3 0.0000 44.094857 18.183891  2.067771
742   3 0.0000 48.482061 20.062955  6.269127
743   3 0.0000 52.869266 21.942020 10.470482
744   3 0.0000 57.256471 23.821084 14.671837
745   3 0.0000 61.643675 25.700148 18.873193
746   3 0.0000 48.482063 22.786311  2.067771
747   3 0.0000 52.869268 24.665375  6.269127
748   3 0.0000 57.256472 26.544440 10.470482
749   3 0.0000 61.643677 28.423504 14.671837
750   3 0.0000 66.030882 30.302569 18.873193
751   3 0.0000  8.678671  5.036139  1.050339
752   3 0.0000 13.065875  6.915203  5.251694
753   3 0.0000 17.453080  8.794268  9.453049
754   3 0.0000 21.840285 10.673332 13.654405
755   3 0.0000 26.227489 12.552397 17.855760
756   3 0.0000 13.065877  9.638559  1.050339
757   3 0.0000 17.453082 11.517624  5.251694
758   3 0.0000 21.840286 13.396688  9.453049
759   3 0.0000 26.227491 15.275752 13.654405
760   3 0.0000 30.614696 17.154817 17.855760
761   3 0.0000 17.453083 14.240979  1.050339
762   3 0.0000 21.840288 16.120044  5.251694
763   3 0.0000 26.227493 17.999108  9.453049
764   3 0.0000 30.614697 19.878173 13.654405
765   3 0.0000 35.001902 21.757237 17.855760
766   3 0.0000 21.840290 18.843400  1.050339
767   3 0.0000 26.227494 20.722464  5.251694
768   3 0.0000 30.614699 22.601528  9.453049
769   3 0.0000 35.001904 24.480593 13.654405
770   3 0.0000 39.389108 26.359657 17.855760
771   3 0.0000 26.227496 23.445820  1.050339
772   3 0.0000 30.614701 25.324884  5.251694
773   3 0.0000 35.001905 27.203949  9.453049
774   3 0.0000 39.389110 29.083013 13.654405
775   3 0.0000 43.776315 30.962077 17.855760
776   3 0.0000 15.037119  5.036139  1.050339
777   3 0.0000 19.424323  6.915203  5.251694
778   3 0.0000 23.811528  8.794268  9.453049
779   3 0.0000 28.198733 10.673332 13.654405
780   3 0.0000 32.585937 12.552397 17.855760
781   3 0.0000 19.424325  9.638559  1.050339
782   3 0.0000 23.811530 11.517624  5.251694
783   3 0.0000 28.198734 13.396688  9.453049
784   3 0.0000 32.585939 15.275752 13.654405
785   3 0.0000 36.973144 17.154817 17.855760
786   3 0.0000 23.811531 14.240979  1.050339
787   3 0.0000 28.198736 16.120044  5.251694
788   3 0.0000 32.585941 17.999108  9.453049
789   3 0.0000 36.973145 19.878173 13.654405
790   3 0.0000 41.360350 21.757237 17.855760
791   3 0.0000 28.198738 18.843400  1.050339
792   3 0.0000 32.585942 20.722464  5.251694
793   3 0.0000 36.973147 22.601528  9.453049
794   3 0.0000 41.360352 24.480593 13.654405
795   3 0.0000 45.747556 26.359657 17.855760
796   3 0.0000 32.585944 23.445820  1.050339
797   3 0.0000 36.973149 25.324884  5.251694
798   3 0.0000 41.360353 27.203949  9.453049
799   3 0.0000 45.747558 29.083013 13.654405
800   3 0.0000 50.134763 30.962077 17.855760
801   3 0.0000 21.395566  5.036139  1.050339
802   3 0.0000 25.782771  6.915203  5.251694
803   3 0.0000 30.169976  8.794268  9.453049
804   3 0.0000 34.557180 10.673332 13.654405
805   3 0.0000 38.944385 12.552397 17.855760
806   3 0.0000 25.782773  9.638559  1.050339
807   3 0.0000 30.169977 11.517624  5.251694
808   3 0.0000 34.557182 13.396688  9.453049
809   3 0.0000 38.944387 15.275752 13.654405
810   3 0.0000 43.331591 17.154817 17.855760
811   3 0.0000 30.169979 14.240979  1.050339
812   3 0.0000 34.557184 16.120044  5.251694
813   3 0.0000 38.944388 17.999108  9.453049
814   3 0.0000 43.331593 19.878173 13.654405
815   3 0.0000 47.718798 21.757237 17.855760
816   3 0.0000 34.557185 18.843400  1.050339
817   3 0.0000 38.944390 20.722464  5.251694
818   3 0.0000 43.331595 22.601528  9.453049
819   3 0.0000 47.718799 24.480593 13.654405
820   3 0.0000 52.106004 26.359657 17.855760
821   3 0.0000 38.944392 23.445820  1.050339
822   3 0.0000 43.331596 25.324884  5.251694
823   3 0.0000 47.718801 27.203949  9.453049
824   3 0.0000 52.106006 29.083013 13.654405
825   3 0.0000 56.493210 30.962077 17.855760
826   3 0.0000 27.754014  5.036139  1.050339
827   3 0.0000 32.141219  6.915203  5.251694
828   3 0.0000 36.528424  8.794268  9.453049
829   3 0.0000 40.915628 10.673332 13.654405
830   3 0.0000 45.302833 12.552397 17.855760
831   3 0.0000 32.141221  9.638559  1.050339
832   3 0.0000 36.528425 11.517624  5.251694
833   3 0.0000 40.915630 13.396688  9.453049
834   3 0.0000 45.302835 15.275752 13.654405
835   3 0.0000 49.690039 17.154817 17.855760
836   3 0.0000 36.528427 14.240979  1.050339
837   3 0.0000 40.915632 16.120044  5.251694
838   3 0.0000 45.302836 17.999108  9.453049
839   3 0.0000 49.690041 19.878173 13.654405
840   3 0.0000 54.077246 21.757237 17.855760
841   3 0.0000 40.915633 18.843400  1.050339
842   3 0.0000 45.302838 20.722464  5.251694
843   3 0.0000 49.690043 22.601528  9.453049
844   3 0.0000 54.077247 24.480593 13.654405
845   3 0.0000 58.464452 26.359657 17.855760
846   3 0.0000 45.302840 23.445820  1.050339
847   3 0.0000 49.690044 25.324884  5.251694
848   3 0.0000 54.077249 27.203949  9.453049
849   3 0.0000 58.464454 29.083013 13.654405
850   3 0.0000 62.851658 30.962077 17.855760
851   3 0.0000 34.112462  5.036139  1.050339
852   3 0.0000 38.499667  6.915203  5.251694
853   3 0.0000 42.886871  8.794268  9.453049
854   3 0.0000 47.274076 10.673332 13.654405
855   3 0.0000 51.661281 12.552397 17.855760
856   3 0.0000 38.499668  9.638559  1.050339
857   3 0.0000 42.886873 11.517624  5.251694
858   3 0.0000 47.274078 13.396688  9.453049
859   3 0.0000 51.661282 15.275752 13.654405
860   3 0.0000 56.048487 17.154817 17.855760
861   3 0.0000 42.886875 14.240979  1.050339
862   3 0.0000 47.274079 16.120044  5.251694
863   3 0.0000 51.661284 17.999108  9.453049
864   3 0.0000 56.048489 19.878173 13.654405
865   3 0.0000 60.435693 21.757237 17.855760
866   3 0.0000 47.274081 18.843400  1.050339
867   3 0.0000 51.661286 20.722464  5.251694
868   3 0.0000 56.048490 22.601528  9.453049
869   3 0.0000 60.435695 24.480593 13.654405
870   3 0.0000 64.822900 26.359657 17.855760
871   3 0.0000 51.661287 23.445820  1.050339
872   3 0.0000 56.048492 25.324884  5.251694
873   3 0.0000 60.435697 27.203949  9.453049
874   3 0.0000 64.822901 29.083013 13.654405
875   3 0.0000 69.210106 30.962077 17.855760
876   3 0.0000  8.170420  4.201605  4.168449
877   3 0.0000 12.557624  6.080669  8.369804
878   3 0.0000 16.944829  7.959734 12.571160
879   3 0.0000 21.332034  9.838798 16.772515
880   3 0.0000 25.719238 11.717862 20.973870
881   3 0.0000 12.557626  8.804025  4.168449
882   3 0.0000 16.944831 10.683089  8.369804
883   3 0.0000 21.332035 12.562154 12.571160
884   3 0.0000 25.719240 14.441218 16.772515
885   3 0.0000 30.106445 16.320283 20.973870
886   3 0.0000 16.944832 13.406445  4.168449
887   3 0.0000 21.332037 15.285510  8.369804
888   3 0.0000 25.719242 17.164574 12.571160
889   3 0.0000 30.106446 19.043638 16.772515
890   3 0.0000 34.493651 20.922703 20.973870
891   3 0.0000 21.332039 18.008865  4.168449
892   3 0.0000 25.719243 19.887930  8.369804
893   3 0.0000 30.106448 21.766994 12.571160
894   3 0.0000 34.493653 23.646059 16.772515
895   3 0.0000 38.880857 25.525123 20.973870
896   3 0.0000 25.719245 22.611286  4.168449
897   3 0.0000 30.106450 24.490350  8.369804
898   3 0.0000 34.493654 26.369414 12.571160
899   3 0.0000 38.880859 28.248479 16.772515
900   3 0.0000 43.268064 30.127543 20.973870
901   3 0.0000 14.528868  4.201605  4.168449
902   3 0.0000 18.916072  6.080669  8.369804
903   3 0.0000 23.303277  7.959734 12.571160
904   3 0.0000 27.690482  9.838798 16.772515
905   3 0.0000 32.077686 11.717862 20.973870
906   3 0.0000 18.916074  8.804025  4.168449
907   3 0.0000 23.303279 10.683089  8.369804
908   3 0.0000 27.690483 12.562154 12.571160
909   3 0.0000 32.077688 14.441218 16.772515
910   3 0.0000 36.464893 16.320283 20.973870
911   3 0.0000 23.303280 13.406445  4.168449
912   3 0.0000 27.690485 15.285510  8.369804
913   3 0.0000 32.077690 17.164574 12.571160
914   3 0.0000 36.464894 19.043638 16.772515
915   3 0.0000 40.852099 20.922703 20.973870
916   3 0.0000 27.690487 18.008865  4.168449
917   3 0.0000 32.077691 19.887930  8.369804
918   3 0.0000 36.464896 21.766994 12.571160
919   3 0.0000 40.852101 23.646059 16.772515
920   3 0.0000 45.239305 25.525123 20.973870
921   3 0.0000 32.077693 22.611286  4.168449
922   3 0.0000 36.464898 24.490350  8.369804
923   3 0.0000 40.852102 26.369414 12.571160
924   3 0.0000 45.239307 28.248479 16.772515
925   3 0.0000 49.626512 30.127543 20.973870
926   3 0.0000 20.887315  4.201605  4.168449
927   3 0.0000 25.274520  6.080669  8.369804
928   3 0.0000 29.661725  7.959734 12.571160
929   3 0.0000 34.048929  9.838798 16.772515
930   3 0.0000 38.436134 11.717862 20.973870
931   3 0.0000 25.274522  8.804025  4.168449
932   3 0.0000 29.661726 10.683089  8.369804
933   3 0.0000 34.048931 12.562154 12.571160
934   3 0.0000 38.436136 14.441218 16.772515
935   3 0.0000 42.823340 16.320283 20.973870
936   3 0.0000 29.661728 13.406445  4.168449
937   3 0.0000 34.048933 15.285510  8.369804
938   3 0.0000 38.436137 17.164574 12.571160
939   3 0.0000 42.823342 19.043638 16.772515
940   3 0.0000 47.210547 20.922703 20.973870
941   3 0.0000 34.048934 18.008865  4.168449
942   3 0.0000 38.436139 19.887930  8.369804
943   3 0.0000 42.823344 21.766994 12.571160
944   3 0.0000 47.210548 23.646059 16.772515
945   3 0.0000 51.597753 25.525123 20.973870
946   3 0.0000 38.436141 22.611286  4.168449
947   3 0.0000 42.823345 24.490350  8.369804
948   3 0.0000 47.210550 26.369414 12.571160
949   3 0.0000 51.597755 28.248479 16.772515
950   3 0.0000 55.984959 30.127543 20.973870
951   3 0.0000 27.245763  4.201605  4.168449
952   3 0.0000 31.632968  6.080669  8.369804
953   3 0.0000 36.020173  7.959734 12.571160
954   3 0.0000 40.407377  9.838798 16.772515
955   3 0.0000 44.794582 11.717862 20.973870
956   3 0.0000 31.632970  8.804025  4.168449
957   3 0.0000 36.020174 10.683089  8.369804
958   3 0.0000 40.407379 12.562154 12.571160
959   3 0.0000 44.794584 14.441218 16.772515
960   3 0.0000 49.181788 16.320283 20.973870
961   3 0.0000 36.020176 13.406445  4.168449
962   3 0.0000 40.407381 15.285510  8.369804
963   3 0.0000 44.794585 17.164574 12.571160
964   3 0.0000 49.181790 19.043638 16.772515
965   3 0.0000 53.568995 20.922703 20.973870
966   3 0.0000 40.407382 18.008865  4.168449
967   3 0.0000 44.794587 19.887930  8.369804
968   3 0.0000 49.181792 21.766994 12.571160
969   3 0.0000 53.568996 23.646059 16.772515
970   3 0.0000 57.956201 25.525123 20.973870
971   3 0.0000 44.794589 22.611286  4.168449
972   3 0.0000 49.181793 24.490350  8.369804
973   3 0.0000 53.568998 26.369414 12.571160
974   3 0.0000 57.956203 28.248479 16.772515
975   3 0.0000 62.343407 30.127543 20.973870
976   3 0.0000 33.604211  4.201605  4.168449
977   3 0.0000 37.991416  6.080669  8.369804
978   3 0.0000 42.378620  7.959734 12.571160
979   3 0.0000 46.765825  9.838798 16.772515
980   3 0.0000 51.153030 11.717862 20.973870
981   3 0.0000 37.991417  8.804025  4.168449
982   3 0.0000 42.378622 10.683089  8.369804
983   3 0.0000 46.765827 12.562154 12.571160
984   3 0.0000 51.153031 14.441218 16.772515
985   3 0.0000 55.540236 16.320283 20.973870
986   3 0.0000 42.378624 13.406445  4.168449
987   3 0.0000 46.765828 15.285510  8.369804
988   3 0.0000 51.153033 17.164574 12.571160
989   3 0.0000 55.540238 19.043638 16.772515
990   3 0.0000 59.927442 20.922703 20.973870
991   3 0.0000 46.765830 18.008865  4.168449
992   3 0.0000 51.153035 19.887930  8.369804
993   3 0.0000 55.540239 21.766994 12.571160
994   3 0.0000 59.927444 23.646059 16.772515
995   3 0.0000 64.314649 25.525123 20.973870
996   3 0.0000 51.153036 22.611286  4.168449
997   3 0.0000 55.540241 24.490350  8.369804
998   3 0.0000 59.927446 26.369414 12.571160
999   3 0.0000 64.314650 28.248479 16.772515
1000  3 0.0000 68.701855 30.127543 20.973870
1001  3 0.0000  9.633412  2.104855  2.133584
1002  3 0.0000 14.020617  3.983919  6.334939
1003  3 0.0000 18.407822  5.862984 10.536294
1004  3 0.0000 22.795026  7.742048 14.737650
1005  3 0.0000 27.182231  9.621112 18.939005
1006  3 0.0000 14.020619  6.707275  2.133584
1007  3 0.0000 18.407823  8.586339  6.334939
1008  3 0.0000 22.795028 10.465404 10.536294
1009  3 0.0000 27.182233 12.344468 14.737650
1010  3 0.0000 31.569437 14.223533 18.939005
1011  3 0.0000 18.407825 11.309695  2.133584
1012  3 0.0000 22.795030 13.188760  6.334939
1013  3 0.0000 27.182234 15.067824 10.536294
1014  3 0.0000 31.569439 16.946888 14.737650
1015  3 0.0000 35.956644 18.825953 18.939005
1016  3 0.0000 22.795031 15.912115  2.133584
1017  3 0.0000 27.182236 17.791180  6.334939
1018  3 0.0000 31.569441 19.670244 10.536294
1019  3 0.0000 35.956645 21.549309 14.737650
1020  3 0.0000 40.343850 23.428373 18.939005
1021  3 0.0000 27.182238 20.514536  2.133584
1022  3 0.0000 31.569442 22.393600  6.334939
1023  3 0.0000 35.956647 24.272664 10.536294
1024  3 0.0000 40.343852 26.151729 14.737650
1025  3 0.0000 44.731056 28.030793 18.939005
1026  3 0.0000 15.991860  2.104855  2.133584
1027  3 0.0000 20.379065  3.983919  6.334939
1028  3 0.0000 24.766270  5.862984 10.536294
1029  3 0.0000 29.153474  7.742048 14.737650
1030  3 0.0000 33.540679  9.621112 18.939005
1031  3 0.0000 20.379067  6.707275  2.133584
1032  3 0.0000 24.766271  8.586339  6.334939
1033  3 0.0000 29.153476 10.465404 10.536294
1034  3 0.0000 33.540681 12.344468 14.737650
1035  3 0.0000 37.927885 14.223533 18.939005
1036  3 0.0000 24.766273 11.309695  2.133584
1037  3 0.0000 29.153478 13.188760  6.334939
1038  3 0.0000 33.540682 15.067824 10.536294
1039  3 0.0000 37.927887 16.946888 14.737650
1040  3 0.0000 42.315091 18.825953 18.939005
1041  3 0.0000 29.153479 15.912115  2.133584
1042  3 0.0000 33.540684 17.791180  6.334939
1043  3 0.0000 37.927889 19.670244 10.536294
1044  3 0.0000 42.315093 21.549309 14.737650
1045  3 0.0000 46.702298 23.428373 18.939005
1046  3 0.0000 33.540686 20.514536  2.133584
1047  3 0.0000 37.927890 22.393600  6.334939
1048  3 0.0000 42.315095 24.272664 10.536294
1049  3 0.0000 46.702300 26.151729 14.737650
1050  3 0.0000 51.089504 28.030793 18.939005
1051  3 0.0000 22.350308  2.104855  2.133584
1052  3 0.0000 26.737513  3.983919  6.334939
1053  3 0.0000 31.124717  5.862984 10.536294
1054  3 0.0000 35.511922  7.742048 14.737650
1055  3 0.0000 39.899127  9.621112 18.939005
1056  3 0.0000 26.737514  6.707275  2.133584
1057  3 0.0000 31.124719  8.586339  6.334939
1058  3 0.0000 35.511924 10.465404 10.536294
1059  3 0.0000 39.899128 12.344468 14.737650
1060  3 0.0000 44.286333 14.223533 18.939005
1061  3 0.0000 31.124721 11.309695  2.133584
1062  3 0.0000 35.511925 13.188760  6.334939
1063  3 0.0000 39.899130 15.067824 10.536294
1064  3 0.0000 44.286335 16.946888 14.737650
1065  3 0.0000 48.673539 18.825953 18.939005
1066  3 0.0000 35.511927 15.912115  2.133584
1067  3 0.0000 39.899132 17.791180  6.334939
1068  3 0.0000 44.286336 19.670244 10.536294
1069  3 0.0000 48.673541 21.549309 14.737650
1070  3 0.0000 53.060746 23.428373 18.939005
1071  3 0.0000 39.899133 20.514536  2.133584
1072  3 0.0000 44.286338 22.393600  6.334939
1073  3 0.0000 48.673543 24.272664 10.536294
1074  3 0.0000 53.060747 26.151729 14.737650
1075  3 0.0000 57.447952 28.030793 18.939005
1076  3 0.0000 28.708756  2.104855  2.133584
1077  3 0.0000 33.095961  3.983919  6.334939
1078  3 0.0000 37.483165  5.862984 10.536294
1079  3 0.0000 41.870370  7.742048 14.737650
1080  3 0.0000 46.257574  9.621112 18.939005
1081  3 0.0000 33.095962  6.707275  2.133584
1082  3 0.0000 37.483167  8.586339  6.334939
1083  3 0.0000 41.870372 10.465404 10.536294
1084  3 0.0000 46.257576 12.344468 14.737650
1085  3 0.0000 50.644781 14.223533 18.939005
1086  3 0.0000 37.483169 11.309695  2.133584
1087  3 0.0000 41.870373 13.188760  6.334939
1088  3 0.0000 46.257578 15.067824 10.536294
1089  3 0.0000 50.644783 16.946888 14.737650
1090  3 0.0000 55.031987 18.825953 18.939005
1091  3 0.0000 41.870375 15.912115  2.133584
1092  3 0.0000 46.257580 17.791180  6.334939
1093  3 0.0000 50.644784 19.670244 10.536294
1094  3 0.0000 55.031989 21.549309 14.737650
1095  3 0.0000 59.419194 23.428373 18.939005
1096  3 0.0000 46.257581 20.514536  2.133584
1097  3 0.0000 50.644786 22.393600  6.334939
1098  3 0.0000 55.031991 24.272664 10.536294
1099  3 0.0000 59.419195 26.151729 14.737650
1100  3 0.0000 63.806400 28.030793 18.939005
1101  3 0.0000 35.067204  2.104855  2.133584
1102  3 0.0000 39.454408  3.983919  6.334939
1103  3 0.0000 43.841613  5.862984 10.536294
1104  3 0.0000 48.228818  7.742048 14.737650
1105  3 0.0000 52.616022  9.621112 18.939005
1106  3 0.0000 39.454410  6.707275  2.133584
1107  3 0.0000 43.841615  8.586339  6.334939
1108  3 0.0000 48.228819 10.465404 10.536294
1109  3 0.0000 52.616024 12.344468 14.737650
1110  3 0.0000 57.003229 14.223533 18.939005
1111  3 0.0000 43.841616 11.309695  2.133584
1112  3 0.0000 48.228821 13.188760  6.334939
1113  3 0.0000 52.616026 15.067824 10.536294
1114  3 0.0000 57.003230 16.946888 14.737650
1115  3 0.0000 61.390435 18.825953 18.939005
1116  3 0.0000 48.228823 15.912115  2.133584
1117  3 0.0000 52.616027 17.791180  6.334939
1118  3 0.0000 57.003232 19.670244 10.536294
1119  3 0.0000 61.390437 21.549309 14.737650
1120  3 0.0000 65.777641 23.428373 18.939005
1121  3 0.0000 52.616029 20.514536  2.133584
1122  3 0.0000 57.003234 22.393600  6.334939
1123  3 0.0000 61.390438 24.272664 10.536294
1124  3 0.0000 65.777643 26.151729 14.737650
1125  3 0.0000 70.164848 28.030793 18.939005
1126  3 0.0000  6.454188  1.445346  3.151016
1127  3 0.0000 10.841393  3.324410  7.352372
1128  3 0.0000 15.228597  5.203475 11.553727
1129  3 0.0000 19.615802  7.082539 15.755082
1130  3 0.0000 24.003007  8.961604 19.956438
1131  3 0.0000 10.841394  6.047766  3.151016
1132  3 0.0000 15.228599  7.926830  7.352372
1133  3 0.0000 19.615804  9.805895 11.553727
1134  3 0.0000 24.003008 11.684959 15.755082
1135  3 0.0000 28.390213 13.564024 19.956438
1136  3 0.0000 15.228601 10.650186  3.151016
1137  3 0.0000 19.615805 12.529251  7.352372
1138  3 0.0000 24.003010 14.408315 11.553727
1139  3 0.0000 28.390215 16.287380 15.755082
1140  3 0.0000 32.777419 18.166444 19.956438
1141  3 0.0000 19.615807 15.252606  3.151016
1142  3 0.0000 24.003012 17.131671  7.352372
1143  3 0.0000 28.390216 19.010735 11.553727
1144  3 0.0000 32.777421 20.889800 15.755082
1145  3 0.0000 37.164626 22.768864 19.956438
1146  3 0.0000 24.003013 19.855027  3.151016
1147  3 0.0000 28.390218 21.734091  7.352372
1148  3 0.0000 32.777423 23.613156 11.553727
1149  3 0.0000 37.164627 25.492220 15.755082
1150  3 0.0000 41.551832 27.371284 19.956438
1151  3 0.0000 12.812636  1.445346  3.151016
1152  3 0.0000 17.199841  3.324410  7.352372
1153  3 0.0000 21.587045  5.203475 11.553727
1154  3 0.0000 25.974250  7.082539 15.755082
1155  3 0.0000 30.361454  8.961604 19.956438
1156  3 0.0000 17.199842  6.047766  3.151016
1157  3 0.0000 21.587047  7.926830  7.352372
1158  3 0.0000 25.974252  9.805895 11.553727
1159  3 0.0000 30.361456 11.684959 15.755082
1160  3 0.0000 34.748661 13.564024 19.956438
1161  3 0.0000 21.587049 10.650186  3.151016
1162  3 0.0000 25.974253 12.529251  7.352372
1163  3 0.0000 30.361458 14.408315 11.553727
1164  3 0.0000 34.748663 16.287380 15.755082
1165  3 0.0000 39.135867 18.166444 19.956438
1166  3 0.0000 25.974255 15.252606  3.151016
1167  3 0.0000 30.361460 17.131671  7.352372
1168  3 0.0000 34.748664 19.010735 11.553727
1169  3 0.0000 39.135869 20.889800 15.755082
1170  3 0.0000 43.523074 22.768864 19.956438
1171  3 0.0000 30.361461 19.855027  3.151016
1172  3 0.0000 34.748666 21.734091  7.352372
1173  3 0.0000 39.135871 23.613156 11.553727
1174  3 0.0000 43.523075 25.492220 15.755082
1175  3 0.0000 47.910280 27.371284 19.956438
1176  3 0.0000 19.171084  1.445346  3.151016
1177  3 0.0000 23.558288  3.324410  7.352372
1178  3 0.0000 27.945493  5.203475 11.553727
1179  3 0.0000 32.332698  7.082539 15.755082
1180  3 0.0000 36.719902  8.961604 19.956438
1181  3 0.0000 23.558290  6.047766  3.151016
1182  3 0.0000 27.945495  7.926830  7.352372
1183  3 0.0000 32.332699  9.805895 11.553727
1184  3 0.0000 36.719904 11.684959 15.755082
1185  3 0.0000 41.107109 13.564024 19.956438
1186  3 0.0000 27.945496 10.650186  3.151016
1187  3 0.0000 32.332701 12.529251  7.352372
1188  3 0.0000 36.719906 14.408315 11.553727
1189  3 0.0000 41.107110 16.287380 15.755082
1190  3 0.0000 45.494315 18.166444 19.956438
1191  3 0.0000 32.332703 15.252606  3.151016
1192  3 0.0000 36.719907 17.131671  7.352372
1193  3 0.0000 41.107112 19.010735 11.553727
1194  3 0.0000 45.494317 20.889800 15.755082
1195  3 0.0000 49.881521 22.768864 19.956438
1196  3 0.0000 36.719909 19.855027  3.151016
1197  3 0.0000 41.107114 21.734091  7.352372
1198  3 0.0000 45.494318 23.613156 11.553727
1199  3 0.0000 49.881523 25.492220 15.755082
1200  3 0.0000 54.268728 27.371284 19.956438
1201  3 0.0000 25.529532  1.445346  3.151016
1202  3 0.0000 29.916736  3.324410  7.352372
1203  3 0.0000 34.303941  5.203475 11.553727
1204  3 0.0000 38.691145  7.082539 15.755082
1205  3 0.0000 43.078350  8.961604 19.956438
1206  3 0.0000 29.916738  6.047766  3.151016
1207  3 0.0000 34.303943  7.926830  7.352372
1208  3 0.0000 38.691147  9.805895 11.553727
1209  3 0.0000 43.078352 11.684959 15.755082
1210  3 0.0000 47.465556 13.564024 19.956438
1211  3 0.0000 34.303944 10.650186  3.151016
1212  3 0.0000 38.691149 12.529251  7.352372
1213  3 0.0000 43.078354 14.408315 11.553727
1214  3 0.0000 47.465558 16.287380 15.755082
1215  3 0.0000 51.852763 18.166444 19.956438
1216  3 0.0000 38.691151 15.252606  3.151016
1217  3 0.0000 43.078355 17.131671  7.352372
1218  3 0.0000 47.465560 19.010735 11.553727
1219  3 0.0000 51.852765 20.889800 15.755082
1220  3 0.0000 56.239969 22.768864 19.956438
1221  3 0.0000 43.078357 19.855027  3.151016
1222  3 0.0000 47.465562 21.734091  7.352372
1223  3 0.0000 51.852766 23.613156 11.553727
1224  3 0.0000 56.239971 25.492220 15.755082
1225  3 0.0000 60.627176 27.371284 19.956438
1226  3 0.0000 31.887979  1.445346  3.151016
1227  3 0.0000 36.275184  3.324410  7.352372
1228  3 0.0000 40.662389  5.203475 11.553727
1229  3 0.0000 45.049593  7.082539 15.755082
1230  3 0.0000 49.436798  8.961604 19.956438
1231  3 0.0000 36.275186  6.047766  3.151016
1232  3 0.0000 40.662390  7.926830  7.352372
1233  3 0.0000 45.049595  9.805895 11.553727
1234  3 0.0000 49.436800 11.684959 15.755082
1235  3 0.0000 53.824004 13.564024 19.956438
1236  3 0.0000 40.662392 10.650186  3.151016
1237  3 0.0000 45.049597 12.529251  7.352372
1238  3 0.0000 49.436801 14.408315 11.553727
1239  3 0.0000 53.824006 16.287380 15.755082
1240  3 0.0000 58.211211 18.166444 19.956438
1241  3 0.0000 45.049598 15.252606  3.151016
1242  3 0.0000 49.436803 17.131671  7.352372
1243  3 0.0000 53.824008 19.010735 11.553727
1244  3 0.0000 58.211212 20.889800 15.755082
1245  3 0.0000 62.598417 22.768864 19.956438
1246  3 0.0000 49.436805 19.855027  3.151016
1247  3 0.0000 53.824009 21.734091  7.352372
1248  3 0.0000 58.211214 23.613156 11.553727
1249  3 0.0000 62.598419 25.492220 15.755082
1250  3 0.0000 66.985623 27.371284 19.956438

