Generated by pymatgen.io.lammps.data.LammpsData

224  atoms

  4  atom types

0.000000 14.779968  xlo xhi
0.000000 14.779968  ylo yhi
0.000000 11.966980  zlo zhi

Masses

1   40.078000
2  157.250000
3   26.981539
4   15.999400

Atoms

1    1 0.0000  1.847496  1.847496  1.709734
2    1 0.0000  1.847496  5.542488  1.709734
3    1 0.0000  1.847496  9.237480  1.709734
4    1 0.0000  1.847496 12.932472  1.709734
5    1 0.0000  5.542488  1.847496  1.709734
6    1 0.0000  5.542488  5.542488  1.709734
7    1 0.0000  5.542488  9.237480  1.709734
8    1 0.0000  5.542488 12.932472  1.709734
9    1 0.0000  9.237480  1.847496  1.709734
10   1 0.0000  9.237480  5.542488  1.709734
11   1 0.0000  9.237480  9.237480  1.709734
12   1 0.0000  9.237480 12.932472  1.709734
13   1 0.0000 12.932472  1.847496  1.709734
14   1 0.0000 12.932472  5.542488  1.709734
15   1 0.0000 12.932472  9.237480  1.709734
16   1 0.0000 12.932472 12.932472  1.709734
17   1 0.0000  0.000000  0.000000  7.693224
18   1 0.0000  0.000000  3.694992  7.693224
19   1 0.0000  0.000000  7.389984  7.693224
20   1 0.0000  0.000000 11.084976  7.693224
21   1 0.0000  3.694992  0.000000  7.693224
22   1 0.0000  3.694992  3.694992  7.693224
23   1 0.0000  3.694992  7.389984  7.693224
24   1 0.0000  3.694992 11.084976  7.693224
25   1 0.0000  7.389984  0.000000  7.693224
26   1 0.0000  7.389984  3.694992  7.693224
27   1 0.0000  7.389984  7.389984  7.693224
28   1 0.0000  7.389984 11.084976  7.693224
29   1 0.0000 11.084976  0.000000  7.693224
30   1 0.0000 11.084976  3.694992  7.693224
31   1 0.0000 11.084976  7.389984  7.693224
32   1 0.0000 11.084976 11.084976  7.693224
33   2 0.0000  0.000000  0.000000  4.281845
34   2 0.0000  0.000000  3.694992  4.281845
35   2 0.0000  0.000000  7.389984  4.281845
36   2 0.0000  0.000000 11.084976  4.281845
37   2 0.0000  3.694992  0.000000  4.281845
38   2 0.0000  3.694992  3.694992  4.281845
39   2 0.0000  3.694992  7.389984  4.281845
40   2 0.0000  3.694992 11.084976  4.281845
41   2 0.0000  7.389984  0.000000  4.281845
42   2 0.0000  7.389984  3.694992  4.281845
43   2 0.0000  7.389984  7.389984  4.281845
44   2 0.0000  7.389984 11.084976  4.281845
45   2 0.0000 11.084976  0.000000  4.281845
46   2 0.0000 11.084976  3.694992  4.281845
47   2 0.0000 11.084976  7.389984  4.281845
48   2 0.0000 11.084976 11.084976  4.281845
49   2 0.0000  1.847496  1.847496 10.265335
50   2 0.0000  1.847496  5.542488 10.265335
51   2 0.0000  1.847496  9.237480 10.265335
52   2 0.0000  1.847496 12.932472 10.265335
53   2 0.0000  5.542488  1.847496 10.265335
54   2 0.0000  5.542488  5.542488 10.265335
55   2 0.0000  5.542488  9.237480 10.265335
56   2 0.0000  5.542488 12.932472 10.265335
57   2 0.0000  9.237480  1.847496 10.265335
58   2 0.0000  9.237480  5.542488 10.265335
59   2 0.0000  9.237480  9.237480 10.265335
60   2 0.0000  9.237480 12.932472 10.265335
61   2 0.0000 12.932472  1.847496 10.265335
62   2 0.0000 12.932472  5.542488 10.265335
63   2 0.0000 12.932472  9.237480 10.265335
64   2 0.0000 12.932472 12.932472 10.265335
65   3 0.0000  0.000000  0.000000  0.067230
66   3 0.0000  0.000000  3.694992  0.067230
67   3 0.0000  0.000000  7.389984  0.067230
68   3 0.0000  0.000000 11.084976  0.067230
69   3 0.0000  3.694992  0.000000  0.067230
70   3 0.0000  3.694992  3.694992  0.067230
71   3 0.0000  3.694992  7.389984  0.067230
72   3 0.0000  3.694992 11.084976  0.067230
73   3 0.0000  7.389984  0.000000  0.067230
74   3 0.0000  7.389984  3.694992  0.067230
75   3 0.0000  7.389984  7.389984  0.067230
76   3 0.0000  7.389984 11.084976  0.067230
77   3 0.0000 11.084976  0.000000  0.067230
78   3 0.0000 11.084976  3.694992  0.067230
79   3 0.0000 11.084976  7.389984  0.067230
80   3 0.0000 11.084976 11.084976  0.067230
81   3 0.0000  1.847496  1.847496  6.050720
82   3 0.0000  1.847496  5.542488  6.050720
83   3 0.0000  1.847496  9.237480  6.050720
84   3 0.0000  1.847496 12.932472  6.050720
85   3 0.0000  5.542488  1.847496  6.050720
86   3 0.0000  5.542488  5.542488  6.050720
87   3 0.0000  5.542488  9.237480  6.050720
88   3 0.0000  5.542488 12.932472  6.050720
89   3 0.0000  9.237480  1.847496  6.050720
90   3 0.0000  9.237480  5.542488  6.050720
91   3 0.0000  9.237480  9.237480  6.050720
92   3 0.0000  9.237480 12.932472  6.050720
93   3 0.0000 12.932472  1.847496  6.050720
94   3 0.0000 12.932472  5.542488  6.050720
95   3 0.0000 12.932472  9.237480  6.050720
96   3 0.0000 12.932472 12.932472  6.050720
97   4 0.0000  1.847496  1.847496  3.983114
98   4 0.0000  1.847496  5.542488  3.983114
99   4 0.0000  1.847496  9.237480  3.983114
100  4 0.0000  1.847496 12.932472  3.983114
101  4 0.0000  5.542488  1.847496  3.983114
102  4 0.0000  5.542488  5.542488  3.983114
103  4 0.0000  5.542488  9.237480  3.983114
104  4 0.0000  5.542488 12.932472  3.983114
105  4 0.0000  9.237480  1.847496  3.983114
106  4 0.0000  9.237480  5.542488  3.983114
107  4 0.0000  9.237480  9.237480  3.983114
108  4 0.0000  9.237480 12.932472  3.983114
109  4 0.0000 12.932472  1.847496  3.983114
110  4 0.0000 12.932472  5.542488  3.983114
111  4 0.0000 12.932472  9.237480  3.983114
112  4 0.0000 12.932472 12.932472  3.983114
113  4 0.0000  0.000000  0.000000  2.020684
114  4 0.0000  0.000000  3.694992  2.020684
115  4 0.0000  0.000000  7.389984  2.020684
116  4 0.0000  0.000000 11.084976  2.020684
117  4 0.0000  3.694992  0.000000  2.020684
118  4 0.0000  3.694992  3.694992  2.020684
119  4 0.0000  3.694992  7.389984  2.020684
120  4 0.0000  3.694992 11.084976  2.020684
121  4 0.0000  7.389984  0.000000  2.020684
122  4 0.0000  7.389984  3.694992  2.020684
123  4 0.0000  7.389984  7.389984  2.020684
124  4 0.0000  7.389984 11.084976  2.020684
125  4 0.0000 11.084976  0.000000  2.020684
126  4 0.0000 11.084976  3.694992  2.020684
127  4 0.0000 11.084976  7.389984  2.020684
128  4 0.0000 11.084976 11.084976  2.020684
129  4 0.0000  1.847496  0.000000  5.935670
130  4 0.0000  1.847496  3.694992  5.935670
131  4 0.0000  1.847496  7.389984  5.935670
132  4 0.0000  1.847496 11.084976  5.935670
133  4 0.0000  5.542488  0.000000  5.935670
134  4 0.0000  5.542488  3.694992  5.935670
135  4 0.0000  5.542488  7.389984  5.935670
136  4 0.0000  5.542488 11.084976  5.935670
137  4 0.0000  9.237480  0.000000  5.935670
138  4 0.0000  9.237480  3.694992  5.935670
139  4 0.0000  9.237480  7.389984  5.935670
140  4 0.0000  9.237480 11.084976  5.935670
141  4 0.0000 12.932472  0.000000  5.935670
142  4 0.0000 12.932472  3.694992  5.935670
143  4 0.0000 12.932472  7.389984  5.935670
144  4 0.0000 12.932472 11.084976  5.935670
145  4 0.0000  0.000000  1.847496  5.935670
146  4 0.0000  0.000000  5.542488  5.935670
147  4 0.0000  0.000000  9.237480  5.935670
148  4 0.0000  0.000000 12.932472  5.935670
149  4 0.0000  3.694992  1.847496  5.935670
150  4 0.0000  3.694992  5.542488  5.935670
151  4 0.0000  3.694992  9.237480  5.935670
152  4 0.0000  3.694992 12.932472  5.935670
153  4 0.0000  7.389984  1.847496  5.935670
154  4 0.0000  7.389984  5.542488  5.935670
155  4 0.0000  7.389984  9.237480  5.935670
156  4 0.0000  7.389984 12.932472  5.935670
157  4 0.0000 11.084976  1.847496  5.935670
158  4 0.0000 11.084976  5.542488  5.935670
159  4 0.0000 11.084976  9.237480  5.935670
160  4 0.0000 11.084976 12.932472  5.935670
161  4 0.0000  0.000000  0.000000  9.966604
162  4 0.0000  0.000000  3.694992  9.966604
163  4 0.0000  0.000000  7.389984  9.966604
164  4 0.0000  0.000000 11.084976  9.966604
165  4 0.0000  3.694992  0.000000  9.966604
166  4 0.0000  3.694992  3.694992  9.966604
167  4 0.0000  3.694992  7.389984  9.966604
168  4 0.0000  3.694992 11.084976  9.966604
169  4 0.0000  7.389984  0.000000  9.966604
170  4 0.0000  7.389984  3.694992  9.966604
171  4 0.0000  7.389984  7.389984  9.966604
172  4 0.0000  7.389984 11.084976  9.966604
173  4 0.0000 11.084976  0.000000  9.966604
174  4 0.0000 11.084976  3.694992  9.966604
175  4 0.0000 11.084976  7.389984  9.966604
176  4 0.0000 11.084976 11.084976  9.966604
177  4 0.0000  1.847496  1.847496  8.004174
178  4 0.0000  1.847496  5.542488  8.004174
179  4 0.0000  1.847496  9.237480  8.004174
180  4 0.0000  1.847496 12.932472  8.004174
181  4 0.0000  5.542488  1.847496  8.004174
182  4 0.0000  5.542488  5.542488  8.004174
183  4 0.0000  5.542488  9.237480  8.004174
184  4 0.0000  5.542488 12.932472  8.004174
185  4 0.0000  9.237480  1.847496  8.004174
186  4 0.0000  9.237480  5.542488  8.004174
187  4 0.0000  9.237480  9.237480  8.004174
188  4 0.0000  9.237480 12.932472  8.004174
189  4 0.0000 12.932472  1.847496  8.004174
190  4 0.0000 12.932472  5.542488  8.004174
191  4 0.0000 12.932472  9.237480  8.004174
192  4 0.0000 12.932472 12.932472  8.004174
193  4 0.0000  0.000000  1.847496 11.919160
194  4 0.0000  0.000000  5.542488 11.919160
195  4 0.0000  0.000000  9.237480 11.919160
196  4 0.0000  0.000000 12.932472 11.919160
197  4 0.0000  3.694992  1.847496 11.919160
198  4 0.0000  3.694992  5.542488 11.919160
199  4 0.0000  3.694992  9.237480 11.919160
200  4 0.0000  3.694992 12.932472 11.919160
201  4 0.0000  7.389984  1.847496 11.919160
202  4 0.0000  7.389984  5.542488 11.919160
203  4 0.0000  7.389984  9.237480 11.919160
204  4 0.0000  7.389984 12.932472 11.919160
205  4 0.0000 11.084976  1.847496 11.919160
206  4 0.0000 11.084976  5.542488 11.919160
207  4 0.0000 11.084976  9.237480 11.919160
208  4 0.0000 11.084976 12.932472 11.919160
209  4 0.0000  1.847496  0.000000 11.919160
210  4 0.0000  1.847496  3.694992 11.919160
211  4 0.0000  1.847496  7.389984 11.919160
212  4 0.0000  1.847496 11.084976 11.919160
213  4 0.0000  5.542488  0.000000 11.919160
214  4 0.0000  5.542488  3.694992 11.919160
215  4 0.0000  5.542488  7.389984 11.919160
216  4 0.0000  5.542488 11.084976 11.919160
217  4 0.0000  9.237480  0.000000 11.919160
218  4 0.0000  9.237480  3.694992 11.919160
219  4 0.0000  9.237480  7.389984 11.919160
220  4 0.0000  9.237480 11.084976 11.919160
221  4 0.0000 12.932472  0.000000 11.919160
222  4 0.0000 12.932472  3.694992 11.919160
223  4 0.0000 12.932472  7.389984 11.919160
224  4 0.0000 12.932472 11.084976 11.919160

