Generated by pymatgen.io.lammps.data.LammpsData

576  atoms

  4  atom types

0.000000 20.725896  xlo xhi
0.000000 21.619136  ylo yhi
0.000000 18.709364  zlo zhi

Masses

1   54.938045
2  127.600000
3   95.940000
4   15.999400

Atoms

1    1 0.0000  2.590737  2.702392  4.926063
2    1 0.0000  2.590737  2.702392 14.280745
3    1 0.0000  2.590737  8.107176  4.926063
4    1 0.0000  2.590737  8.107176 14.280745
5    1 0.0000  2.590737 13.511960  4.926063
6    1 0.0000  2.590737 13.511960 14.280745
7    1 0.0000  2.590737 18.916744  4.926063
8    1 0.0000  2.590737 18.916744 14.280745
9    1 0.0000  7.772211  2.702392  4.926063
10   1 0.0000  7.772211  2.702392 14.280745
11   1 0.0000  7.772211  8.107176  4.926063
12   1 0.0000  7.772211  8.107176 14.280745
13   1 0.0000  7.772211 13.511960  4.926063
14   1 0.0000  7.772211 13.511960 14.280745
15   1 0.0000  7.772211 18.916744  4.926063
16   1 0.0000  7.772211 18.916744 14.280745
17   1 0.0000 12.953685  2.702392  4.926063
18   1 0.0000 12.953685  2.702392 14.280745
19   1 0.0000 12.953685  8.107176  4.926063
20   1 0.0000 12.953685  8.107176 14.280745
21   1 0.0000 12.953685 13.511960  4.926063
22   1 0.0000 12.953685 13.511960 14.280745
23   1 0.0000 12.953685 18.916744  4.926063
24   1 0.0000 12.953685 18.916744 14.280745
25   1 0.0000 18.135159  2.702392  4.926063
26   1 0.0000 18.135159  2.702392 14.280745
27   1 0.0000 18.135159  8.107176  4.926063
28   1 0.0000 18.135159  8.107176 14.280745
29   1 0.0000 18.135159 13.511960  4.926063
30   1 0.0000 18.135159 13.511960 14.280745
31   1 0.0000 18.135159 18.916744  4.926063
32   1 0.0000 18.135159 18.916744 14.280745
33   1 0.0000  0.000000  0.000000  4.428619
34   1 0.0000  0.000000  0.000000 13.783301
35   1 0.0000  0.000000  5.404784  4.428619
36   1 0.0000  0.000000  5.404784 13.783301
37   1 0.0000  0.000000 10.809568  4.428619
38   1 0.0000  0.000000 10.809568 13.783301
39   1 0.0000  0.000000 16.214352  4.428619
40   1 0.0000  0.000000 16.214352 13.783301
41   1 0.0000  5.181474  0.000000  4.428619
42   1 0.0000  5.181474  0.000000 13.783301
43   1 0.0000  5.181474  5.404784  4.428619
44   1 0.0000  5.181474  5.404784 13.783301
45   1 0.0000  5.181474 10.809568  4.428619
46   1 0.0000  5.181474 10.809568 13.783301
47   1 0.0000  5.181474 16.214352  4.428619
48   1 0.0000  5.181474 16.214352 13.783301
49   1 0.0000 10.362948  0.000000  4.428619
50   1 0.0000 10.362948  0.000000 13.783301
51   1 0.0000 10.362948  5.404784  4.428619
52   1 0.0000 10.362948  5.404784 13.783301
53   1 0.0000 10.362948 10.809568  4.428619
54   1 0.0000 10.362948 10.809568 13.783301
55   1 0.0000 10.362948 16.214352  4.428619
56   1 0.0000 10.362948 16.214352 13.783301
57   1 0.0000 15.544422  0.000000  4.428619
58   1 0.0000 15.544422  0.000000 13.783301
59   1 0.0000 15.544422  5.404784  4.428619
60   1 0.0000 15.544422  5.404784 13.783301
61   1 0.0000 15.544422 10.809568  4.428619
62   1 0.0000 15.544422 10.809568 13.783301
63   1 0.0000 15.544422 16.214352  4.428619
64   1 0.0000 15.544422 16.214352 13.783301
65   2 0.0000  0.000000  2.702392  2.403180
66   2 0.0000  0.000000  2.702392 11.757862
67   2 0.0000  0.000000  8.107176  2.403180
68   2 0.0000  0.000000  8.107176 11.757862
69   2 0.0000  0.000000 13.511960  2.403180
70   2 0.0000  0.000000 13.511960 11.757862
71   2 0.0000  0.000000 18.916744  2.403180
72   2 0.0000  0.000000 18.916744 11.757862
73   2 0.0000  5.181474  2.702392  2.403180
74   2 0.0000  5.181474  2.702392 11.757862
75   2 0.0000  5.181474  8.107176  2.403180
76   2 0.0000  5.181474  8.107176 11.757862
77   2 0.0000  5.181474 13.511960  2.403180
78   2 0.0000  5.181474 13.511960 11.757862
79   2 0.0000  5.181474 18.916744  2.403180
80   2 0.0000  5.181474 18.916744 11.757862
81   2 0.0000 10.362948  2.702392  2.403180
82   2 0.0000 10.362948  2.702392 11.757862
83   2 0.0000 10.362948  8.107176  2.403180
84   2 0.0000 10.362948  8.107176 11.757862
85   2 0.0000 10.362948 13.511960  2.403180
86   2 0.0000 10.362948 13.511960 11.757862
87   2 0.0000 10.362948 18.916744  2.403180
88   2 0.0000 10.362948 18.916744 11.757862
89   2 0.0000 15.544422  2.702392  2.403180
90   2 0.0000 15.544422  2.702392 11.757862
91   2 0.0000 15.544422  8.107176  2.403180
92   2 0.0000 15.544422  8.107176 11.757862
93   2 0.0000 15.544422 13.511960  2.403180
94   2 0.0000 15.544422 13.511960 11.757862
95   2 0.0000 15.544422 18.916744  2.403180
96   2 0.0000 15.544422 18.916744 11.757862
97   2 0.0000  2.590737  0.000000  6.951502
98   2 0.0000  2.590737  0.000000 16.306184
99   2 0.0000  2.590737  5.404784  6.951502
100  2 0.0000  2.590737  5.404784 16.306184
101  2 0.0000  2.590737 10.809568  6.951502
102  2 0.0000  2.590737 10.809568 16.306184
103  2 0.0000  2.590737 16.214352  6.951502
104  2 0.0000  2.590737 16.214352 16.306184
105  2 0.0000  7.772211  0.000000  6.951502
106  2 0.0000  7.772211  0.000000 16.306184
107  2 0.0000  7.772211  5.404784  6.951502
108  2 0.0000  7.772211  5.404784 16.306184
109  2 0.0000  7.772211 10.809568  6.951502
110  2 0.0000  7.772211 10.809568 16.306184
111  2 0.0000  7.772211 16.214352  6.951502
112  2 0.0000  7.772211 16.214352 16.306184
113  2 0.0000 12.953685  0.000000  6.951502
114  2 0.0000 12.953685  0.000000 16.306184
115  2 0.0000 12.953685  5.404784  6.951502
116  2 0.0000 12.953685  5.404784 16.306184
117  2 0.0000 12.953685 10.809568  6.951502
118  2 0.0000 12.953685 10.809568 16.306184
119  2 0.0000 12.953685 16.214352  6.951502
120  2 0.0000 12.953685 16.214352 16.306184
121  2 0.0000 18.135159  0.000000  6.951502
122  2 0.0000 18.135159  0.000000 16.306184
123  2 0.0000 18.135159  5.404784  6.951502
124  2 0.0000 18.135159  5.404784 16.306184
125  2 0.0000 18.135159 10.809568  6.951502
126  2 0.0000 18.135159 10.809568 16.306184
127  2 0.0000 18.135159 16.214352  6.951502
128  2 0.0000 18.135159 16.214352 16.306184
129  3 0.0000  2.590737  0.000000  1.814256
130  3 0.0000  2.590737  0.000000 11.168938
131  3 0.0000  2.590737  5.404784  1.814256
132  3 0.0000  2.590737  5.404784 11.168938
133  3 0.0000  2.590737 10.809568  1.814256
134  3 0.0000  2.590737 10.809568 11.168938
135  3 0.0000  2.590737 16.214352  1.814256
136  3 0.0000  2.590737 16.214352 11.168938
137  3 0.0000  7.772211  0.000000  1.814256
138  3 0.0000  7.772211  0.000000 11.168938
139  3 0.0000  7.772211  5.404784  1.814256
140  3 0.0000  7.772211  5.404784 11.168938
141  3 0.0000  7.772211 10.809568  1.814256
142  3 0.0000  7.772211 10.809568 11.168938
143  3 0.0000  7.772211 16.214352  1.814256
144  3 0.0000  7.772211 16.214352 11.168938
145  3 0.0000 12.953685  0.000000  1.814256
146  3 0.0000 12.953685  0.000000 11.168938
147  3 0.0000 12.953685  5.404784  1.814256
148  3 0.0000 12.953685  5.404784 11.168938
149  3 0.0000 12.953685 10.809568  1.814256
150  3 0.0000 12.953685 10.809568 11.168938
151  3 0.0000 12.953685 16.214352  1.814256
152  3 0.0000 12.953685 16.214352 11.168938
153  3 0.0000 18.135159  0.000000  1.814256
154  3 0.0000 18.135159  0.000000 11.168938
155  3 0.0000 18.135159  5.404784  1.814256
156  3 0.0000 18.135159  5.404784 11.168938
157  3 0.0000 18.135159 10.809568  1.814256
158  3 0.0000 18.135159 10.809568 11.168938
159  3 0.0000 18.135159 16.214352  1.814256
160  3 0.0000 18.135159 16.214352 11.168938
161  3 0.0000  0.000000  2.702392  7.540426
162  3 0.0000  0.000000  2.702392 16.895108
163  3 0.0000  0.000000  8.107176  7.540426
164  3 0.0000  0.000000  8.107176 16.895108
165  3 0.0000  0.000000 13.511960  7.540426
166  3 0.0000  0.000000 13.511960 16.895108
167  3 0.0000  0.000000 18.916744  7.540426
168  3 0.0000  0.000000 18.916744 16.895108
169  3 0.0000  5.181474  2.702392  7.540426
170  3 0.0000  5.181474  2.702392 16.895108
171  3 0.0000  5.181474  8.107176  7.540426
172  3 0.0000  5.181474  8.107176 16.895108
173  3 0.0000  5.181474 13.511960  7.540426
174  3 0.0000  5.181474 13.511960 16.895108
175  3 0.0000  5.181474 18.916744  7.540426
176  3 0.0000  5.181474 18.916744 16.895108
177  3 0.0000 10.362948  2.702392  7.540426
178  3 0.0000 10.362948  2.702392 16.895108
179  3 0.0000 10.362948  8.107176  7.540426
180  3 0.0000 10.362948  8.107176 16.895108
181  3 0.0000 10.362948 13.511960  7.540426
182  3 0.0000 10.362948 13.511960 16.895108
183  3 0.0000 10.362948 18.916744  7.540426
184  3 0.0000 10.362948 18.916744 16.895108
185  3 0.0000 15.544422  2.702392  7.540426
186  3 0.0000 15.544422  2.702392 16.895108
187  3 0.0000 15.544422  8.107176  7.540426
188  3 0.0000 15.544422  8.107176 16.895108
189  3 0.0000 15.544422 13.511960  7.540426
190  3 0.0000 15.544422 13.511960 16.895108
191  3 0.0000 15.544422 18.916744  7.540426
192  3 0.0000 15.544422 18.916744 16.895108
193  4 0.0000  3.696225  0.930693  5.693952
194  4 0.0000  3.696225  0.930693 15.048634
195  4 0.0000  3.696225  6.335477  5.693952
196  4 0.0000  3.696225  6.335477 15.048634
197  4 0.0000  3.696225 11.740261  5.693952
198  4 0.0000  3.696225 11.740261 15.048634
199  4 0.0000  3.696225 17.145045  5.693952
200  4 0.0000  3.696225 17.145045 15.048634
201  4 0.0000  8.877699  0.930693  5.693952
202  4 0.0000  8.877699  0.930693 15.048634
203  4 0.0000  8.877699  6.335477  5.693952
204  4 0.0000  8.877699  6.335477 15.048634
205  4 0.0000  8.877699 11.740261  5.693952
206  4 0.0000  8.877699 11.740261 15.048634
207  4 0.0000  8.877699 17.145045  5.693952
208  4 0.0000  8.877699 17.145045 15.048634
209  4 0.0000 14.059173  0.930693  5.693952
210  4 0.0000 14.059173  0.930693 15.048634
211  4 0.0000 14.059173  6.335477  5.693952
212  4 0.0000 14.059173  6.335477 15.048634
213  4 0.0000 14.059173 11.740261  5.693952
214  4 0.0000 14.059173 11.740261 15.048634
215  4 0.0000 14.059173 17.145045  5.693952
216  4 0.0000 14.059173 17.145045 15.048634
217  4 0.0000 19.240647  0.930693  5.693952
218  4 0.0000 19.240647  0.930693 15.048634
219  4 0.0000 19.240647  6.335477  5.693952
220  4 0.0000 19.240647  6.335477 15.048634
221  4 0.0000 19.240647 11.740261  5.693952
222  4 0.0000 19.240647 11.740261 15.048634
223  4 0.0000 19.240647 17.145045  5.693952
224  4 0.0000 19.240647 17.145045 15.048634
225  4 0.0000  1.105488  1.771699  3.660730
226  4 0.0000  1.105488  1.771699 13.015412
227  4 0.0000  1.105488  7.176483  3.660730
228  4 0.0000  1.105488  7.176483 13.015412
229  4 0.0000  1.105488 12.581267  3.660730
230  4 0.0000  1.105488 12.581267 13.015412
231  4 0.0000  1.105488 17.986051  3.660730
232  4 0.0000  1.105488 17.986051 13.015412
233  4 0.0000  6.286962  1.771699  3.660730
234  4 0.0000  6.286962  1.771699 13.015412
235  4 0.0000  6.286962  7.176483  3.660730
236  4 0.0000  6.286962  7.176483 13.015412
237  4 0.0000  6.286962 12.581267  3.660730
238  4 0.0000  6.286962 12.581267 13.015412
239  4 0.0000  6.286962 17.986051  3.660730
240  4 0.0000  6.286962 17.986051 13.015412
241  4 0.0000 11.468436  1.771699  3.660730
242  4 0.0000 11.468436  1.771699 13.015412
243  4 0.0000 11.468436  7.176483  3.660730
244  4 0.0000 11.468436  7.176483 13.015412
245  4 0.0000 11.468436 12.581267  3.660730
246  4 0.0000 11.468436 12.581267 13.015412
247  4 0.0000 11.468436 17.986051  3.660730
248  4 0.0000 11.468436 17.986051 13.015412
249  4 0.0000 16.649910  1.771699  3.660730
250  4 0.0000 16.649910  1.771699 13.015412
251  4 0.0000 16.649910  7.176483  3.660730
252  4 0.0000 16.649910  7.176483 13.015412
253  4 0.0000 16.649910 12.581267  3.660730
254  4 0.0000 16.649910 12.581267 13.015412
255  4 0.0000 16.649910 17.986051  3.660730
256  4 0.0000 16.649910 17.986051 13.015412
257  4 0.0000  4.075986  3.633085  3.660730
258  4 0.0000  4.075986  3.633085 13.015412
259  4 0.0000  4.075986  9.037869  3.660730
260  4 0.0000  4.075986  9.037869 13.015412
261  4 0.0000  4.075986 14.442653  3.660730
262  4 0.0000  4.075986 14.442653 13.015412
263  4 0.0000  4.075986 19.847437  3.660730
264  4 0.0000  4.075986 19.847437 13.015412
265  4 0.0000  9.257460  3.633085  3.660730
266  4 0.0000  9.257460  3.633085 13.015412
267  4 0.0000  9.257460  9.037869  3.660730
268  4 0.0000  9.257460  9.037869 13.015412
269  4 0.0000  9.257460 14.442653  3.660730
270  4 0.0000  9.257460 14.442653 13.015412
271  4 0.0000  9.257460 19.847437  3.660730
272  4 0.0000  9.257460 19.847437 13.015412
273  4 0.0000 14.438934  3.633085  3.660730
274  4 0.0000 14.438934  3.633085 13.015412
275  4 0.0000 14.438934  9.037869  3.660730
276  4 0.0000 14.438934  9.037869 13.015412
277  4 0.0000 14.438934 14.442653  3.660730
278  4 0.0000 14.438934 14.442653 13.015412
279  4 0.0000 14.438934 19.847437  3.660730
280  4 0.0000 14.438934 19.847437 13.015412
281  4 0.0000 19.620408  3.633085  3.660730
282  4 0.0000 19.620408  3.633085 13.015412
283  4 0.0000 19.620408  9.037869  3.660730
284  4 0.0000 19.620408  9.037869 13.015412
285  4 0.0000 19.620408 14.442653  3.660730
286  4 0.0000 19.620408 14.442653 13.015412
287  4 0.0000 19.620408 19.847437  3.660730
288  4 0.0000 19.620408 19.847437 13.015412
289  4 0.0000  1.485249  4.474091  5.693952
290  4 0.0000  1.485249  4.474091 15.048634
291  4 0.0000  1.485249  9.878875  5.693952
292  4 0.0000  1.485249  9.878875 15.048634
293  4 0.0000  1.485249 15.283659  5.693952
294  4 0.0000  1.485249 15.283659 15.048634
295  4 0.0000  1.485249 20.688443  5.693952
296  4 0.0000  1.485249 20.688443 15.048634
297  4 0.0000  6.666723  4.474091  5.693952
298  4 0.0000  6.666723  4.474091 15.048634
299  4 0.0000  6.666723  9.878875  5.693952
300  4 0.0000  6.666723  9.878875 15.048634
301  4 0.0000  6.666723 15.283659  5.693952
302  4 0.0000  6.666723 15.283659 15.048634
303  4 0.0000  6.666723 20.688443  5.693952
304  4 0.0000  6.666723 20.688443 15.048634
305  4 0.0000 11.848197  4.474091  5.693952
306  4 0.0000 11.848197  4.474091 15.048634
307  4 0.0000 11.848197  9.878875  5.693952
308  4 0.0000 11.848197  9.878875 15.048634
309  4 0.0000 11.848197 15.283659  5.693952
310  4 0.0000 11.848197 15.283659 15.048634
311  4 0.0000 11.848197 20.688443  5.693952
312  4 0.0000 11.848197 20.688443 15.048634
313  4 0.0000 17.029671  4.474091  5.693952
314  4 0.0000 17.029671  4.474091 15.048634
315  4 0.0000 17.029671  9.878875  5.693952
316  4 0.0000 17.029671  9.878875 15.048634
317  4 0.0000 17.029671 15.283659  5.693952
318  4 0.0000 17.029671 15.283659 15.048634
319  4 0.0000 17.029671 20.688443  5.693952
320  4 0.0000 17.029671 20.688443 15.048634
321  4 0.0000  3.910339  0.995858  2.747161
322  4 0.0000  3.910339  0.995858 12.101843
323  4 0.0000  3.910339  6.400642  2.747161
324  4 0.0000  3.910339  6.400642 12.101843
325  4 0.0000  3.910339 11.805426  2.747161
326  4 0.0000  3.910339 11.805426 12.101843
327  4 0.0000  3.910339 17.210210  2.747161
328  4 0.0000  3.910339 17.210210 12.101843
329  4 0.0000  9.091813  0.995858  2.747161
330  4 0.0000  9.091813  0.995858 12.101843
331  4 0.0000  9.091813  6.400642  2.747161
332  4 0.0000  9.091813  6.400642 12.101843
333  4 0.0000  9.091813 11.805426  2.747161
334  4 0.0000  9.091813 11.805426 12.101843
335  4 0.0000  9.091813 17.210210  2.747161
336  4 0.0000  9.091813 17.210210 12.101843
337  4 0.0000 14.273287  0.995858  2.747161
338  4 0.0000 14.273287  0.995858 12.101843
339  4 0.0000 14.273287  6.400642  2.747161
340  4 0.0000 14.273287  6.400642 12.101843
341  4 0.0000 14.273287 11.805426  2.747161
342  4 0.0000 14.273287 11.805426 12.101843
343  4 0.0000 14.273287 17.210210  2.747161
344  4 0.0000 14.273287 17.210210 12.101843
345  4 0.0000 19.454761  0.995858  2.747161
346  4 0.0000 19.454761  0.995858 12.101843
347  4 0.0000 19.454761  6.400642  2.747161
348  4 0.0000 19.454761  6.400642 12.101843
349  4 0.0000 19.454761 11.805426  2.747161
350  4 0.0000 19.454761 11.805426 12.101843
351  4 0.0000 19.454761 17.210210  2.747161
352  4 0.0000 19.454761 17.210210 12.101843
353  4 0.0000  1.319602  1.706534  6.607521
354  4 0.0000  1.319602  1.706534 15.962203
355  4 0.0000  1.319602  7.111318  6.607521
356  4 0.0000  1.319602  7.111318 15.962203
357  4 0.0000  1.319602 12.516102  6.607521
358  4 0.0000  1.319602 12.516102 15.962203
359  4 0.0000  1.319602 17.920886  6.607521
360  4 0.0000  1.319602 17.920886 15.962203
361  4 0.0000  6.501076  1.706534  6.607521
362  4 0.0000  6.501076  1.706534 15.962203
363  4 0.0000  6.501076  7.111318  6.607521
364  4 0.0000  6.501076  7.111318 15.962203
365  4 0.0000  6.501076 12.516102  6.607521
366  4 0.0000  6.501076 12.516102 15.962203
367  4 0.0000  6.501076 17.920886  6.607521
368  4 0.0000  6.501076 17.920886 15.962203
369  4 0.0000 11.682550  1.706534  6.607521
370  4 0.0000 11.682550  1.706534 15.962203
371  4 0.0000 11.682550  7.111318  6.607521
372  4 0.0000 11.682550  7.111318 15.962203
373  4 0.0000 11.682550 12.516102  6.607521
374  4 0.0000 11.682550 12.516102 15.962203
375  4 0.0000 11.682550 17.920886  6.607521
376  4 0.0000 11.682550 17.920886 15.962203
377  4 0.0000 16.864024  1.706534  6.607521
378  4 0.0000 16.864024  1.706534 15.962203
379  4 0.0000 16.864024  7.111318  6.607521
380  4 0.0000 16.864024  7.111318 15.962203
381  4 0.0000 16.864024 12.516102  6.607521
382  4 0.0000 16.864024 12.516102 15.962203
383  4 0.0000 16.864024 17.920886  6.607521
384  4 0.0000 16.864024 17.920886 15.962203
385  4 0.0000  1.271135  4.408926  2.747161
386  4 0.0000  1.271135  4.408926 12.101843
387  4 0.0000  1.271135  9.813710  2.747161
388  4 0.0000  1.271135  9.813710 12.101843
389  4 0.0000  1.271135 15.218494  2.747161
390  4 0.0000  1.271135 15.218494 12.101843
391  4 0.0000  1.271135 20.623278  2.747161
392  4 0.0000  1.271135 20.623278 12.101843
393  4 0.0000  6.452609  4.408926  2.747161
394  4 0.0000  6.452609  4.408926 12.101843
395  4 0.0000  6.452609  9.813710  2.747161
396  4 0.0000  6.452609  9.813710 12.101843
397  4 0.0000  6.452609 15.218494  2.747161
398  4 0.0000  6.452609 15.218494 12.101843
399  4 0.0000  6.452609 20.623278  2.747161
400  4 0.0000  6.452609 20.623278 12.101843
401  4 0.0000 11.634083  4.408926  2.747161
402  4 0.0000 11.634083  4.408926 12.101843
403  4 0.0000 11.634083  9.813710  2.747161
404  4 0.0000 11.634083  9.813710 12.101843
405  4 0.0000 11.634083 15.218494  2.747161
406  4 0.0000 11.634083 15.218494 12.101843
407  4 0.0000 11.634083 20.623278  2.747161
408  4 0.0000 11.634083 20.623278 12.101843
409  4 0.0000 16.815557  4.408926  2.747161
410  4 0.0000 16.815557  4.408926 12.101843
411  4 0.0000 16.815557  9.813710  2.747161
412  4 0.0000 16.815557  9.813710 12.101843
413  4 0.0000 16.815557 15.218494  2.747161
414  4 0.0000 16.815557 15.218494 12.101843
415  4 0.0000 16.815557 20.623278  2.747161
416  4 0.0000 16.815557 20.623278 12.101843
417  4 0.0000  3.861872  3.698250  6.607521
418  4 0.0000  3.861872  3.698250 15.962203
419  4 0.0000  3.861872  9.103034  6.607521
420  4 0.0000  3.861872  9.103034 15.962203
421  4 0.0000  3.861872 14.507818  6.607521
422  4 0.0000  3.861872 14.507818 15.962203
423  4 0.0000  3.861872 19.912602  6.607521
424  4 0.0000  3.861872 19.912602 15.962203
425  4 0.0000  9.043346  3.698250  6.607521
426  4 0.0000  9.043346  3.698250 15.962203
427  4 0.0000  9.043346  9.103034  6.607521
428  4 0.0000  9.043346  9.103034 15.962203
429  4 0.0000  9.043346 14.507818  6.607521
430  4 0.0000  9.043346 14.507818 15.962203
431  4 0.0000  9.043346 19.912602  6.607521
432  4 0.0000  9.043346 19.912602 15.962203
433  4 0.0000 14.224820  3.698250  6.607521
434  4 0.0000 14.224820  3.698250 15.962203
435  4 0.0000 14.224820  9.103034  6.607521
436  4 0.0000 14.224820  9.103034 15.962203
437  4 0.0000 14.224820 14.507818  6.607521
438  4 0.0000 14.224820 14.507818 15.962203
439  4 0.0000 14.224820 19.912602  6.607521
440  4 0.0000 14.224820 19.912602 15.962203
441  4 0.0000 19.406294  3.698250  6.607521
442  4 0.0000 19.406294  3.698250 15.962203
443  4 0.0000 19.406294  9.103034  6.607521
444  4 0.0000 19.406294  9.103034 15.962203
445  4 0.0000 19.406294 14.507818  6.607521
446  4 0.0000 19.406294 14.507818 15.962203
447  4 0.0000 19.406294 19.912602  6.607521
448  4 0.0000 19.406294 19.912602 15.962203
449  4 0.0000  0.830181  3.815610  8.585690
450  4 0.0000  0.830181  3.815610 17.940372
451  4 0.0000  0.830181  9.220394  8.585690
452  4 0.0000  0.830181  9.220394 17.940372
453  4 0.0000  0.830181 14.625178  8.585690
454  4 0.0000  0.830181 14.625178 17.940372
455  4 0.0000  0.830181 20.029962  8.585690
456  4 0.0000  0.830181 20.029962 17.940372
457  4 0.0000  6.011655  3.815610  8.585690
458  4 0.0000  6.011655  3.815610 17.940372
459  4 0.0000  6.011655  9.220394  8.585690
460  4 0.0000  6.011655  9.220394 17.940372
461  4 0.0000  6.011655 14.625178  8.585690
462  4 0.0000  6.011655 14.625178 17.940372
463  4 0.0000  6.011655 20.029962  8.585690
464  4 0.0000  6.011655 20.029962 17.940372
465  4 0.0000 11.193129  3.815610  8.585690
466  4 0.0000 11.193129  3.815610 17.940372
467  4 0.0000 11.193129  9.220394  8.585690
468  4 0.0000 11.193129  9.220394 17.940372
469  4 0.0000 11.193129 14.625178  8.585690
470  4 0.0000 11.193129 14.625178 17.940372
471  4 0.0000 11.193129 20.029962  8.585690
472  4 0.0000 11.193129 20.029962 17.940372
473  4 0.0000 16.374603  3.815610  8.585690
474  4 0.0000 16.374603  3.815610 17.940372
475  4 0.0000 16.374603  9.220394  8.585690
476  4 0.0000 16.374603  9.220394 17.940372
477  4 0.0000 16.374603 14.625178  8.585690
478  4 0.0000 16.374603 14.625178 17.940372
479  4 0.0000 16.374603 20.029962  8.585690
480  4 0.0000 16.374603 20.029962 17.940372
481  4 0.0000  3.420918  4.291566  0.768992
482  4 0.0000  3.420918  4.291566 10.123674
483  4 0.0000  3.420918  9.696350  0.768992
484  4 0.0000  3.420918  9.696350 10.123674
485  4 0.0000  3.420918 15.101134  0.768992
486  4 0.0000  3.420918 15.101134 10.123674
487  4 0.0000  3.420918 20.505918  0.768992
488  4 0.0000  3.420918 20.505918 10.123674
489  4 0.0000  8.602392  4.291566  0.768992
490  4 0.0000  8.602392  4.291566 10.123674
491  4 0.0000  8.602392  9.696350  0.768992
492  4 0.0000  8.602392  9.696350 10.123674
493  4 0.0000  8.602392 15.101134  0.768992
494  4 0.0000  8.602392 15.101134 10.123674
495  4 0.0000  8.602392 20.505918  0.768992
496  4 0.0000  8.602392 20.505918 10.123674
497  4 0.0000 13.783866  4.291566  0.768992
498  4 0.0000 13.783866  4.291566 10.123674
499  4 0.0000 13.783866  9.696350  0.768992
500  4 0.0000 13.783866  9.696350 10.123674
501  4 0.0000 13.783866 15.101134  0.768992
502  4 0.0000 13.783866 15.101134 10.123674
503  4 0.0000 13.783866 20.505918  0.768992
504  4 0.0000 13.783866 20.505918 10.123674
505  4 0.0000 18.965340  4.291566  0.768992
506  4 0.0000 18.965340  4.291566 10.123674
507  4 0.0000 18.965340  9.696350  0.768992
508  4 0.0000 18.965340  9.696350 10.123674
509  4 0.0000 18.965340 15.101134  0.768992
510  4 0.0000 18.965340 15.101134 10.123674
511  4 0.0000 18.965340 20.505918  0.768992
512  4 0.0000 18.965340 20.505918 10.123674
513  4 0.0000  1.760556  1.113218  0.768992
514  4 0.0000  1.760556  1.113218 10.123674
515  4 0.0000  1.760556  6.518002  0.768992
516  4 0.0000  1.760556  6.518002 10.123674
517  4 0.0000  1.760556 11.922786  0.768992
518  4 0.0000  1.760556 11.922786 10.123674
519  4 0.0000  1.760556 17.327570  0.768992
520  4 0.0000  1.760556 17.327570 10.123674
521  4 0.0000  6.942030  1.113218  0.768992
522  4 0.0000  6.942030  1.113218 10.123674
523  4 0.0000  6.942030  6.518002  0.768992
524  4 0.0000  6.942030  6.518002 10.123674
525  4 0.0000  6.942030 11.922786  0.768992
526  4 0.0000  6.942030 11.922786 10.123674
527  4 0.0000  6.942030 17.327570  0.768992
528  4 0.0000  6.942030 17.327570 10.123674
529  4 0.0000 12.123504  1.113218  0.768992
530  4 0.0000 12.123504  1.113218 10.123674
531  4 0.0000 12.123504  6.518002  0.768992
532  4 0.0000 12.123504  6.518002 10.123674
533  4 0.0000 12.123504 11.922786  0.768992
534  4 0.0000 12.123504 11.922786 10.123674
535  4 0.0000 12.123504 17.327570  0.768992
536  4 0.0000 12.123504 17.327570 10.123674
537  4 0.0000 17.304978  1.113218  0.768992
538  4 0.0000 17.304978  1.113218 10.123674
539  4 0.0000 17.304978  6.518002  0.768992
540  4 0.0000 17.304978  6.518002 10.123674
541  4 0.0000 17.304978 11.922786  0.768992
542  4 0.0000 17.304978 11.922786 10.123674
543  4 0.0000 17.304978 17.327570  0.768992
544  4 0.0000 17.304978 17.327570 10.123674
545  4 0.0000  4.351293  1.589174  8.585690
546  4 0.0000  4.351293  1.589174 17.940372
547  4 0.0000  4.351293  6.993958  8.585690
548  4 0.0000  4.351293  6.993958 17.940372
549  4 0.0000  4.351293 12.398742  8.585690
550  4 0.0000  4.351293 12.398742 17.940372
551  4 0.0000  4.351293 17.803526  8.585690
552  4 0.0000  4.351293 17.803526 17.940372
553  4 0.0000  9.532767  1.589174  8.585690
554  4 0.0000  9.532767  1.589174 17.940372
555  4 0.0000  9.532767  6.993958  8.585690
556  4 0.0000  9.532767  6.993958 17.940372
557  4 0.0000  9.532767 12.398742  8.585690
558  4 0.0000  9.532767 12.398742 17.940372
559  4 0.0000  9.532767 17.803526  8.585690
560  4 0.0000  9.532767 17.803526 17.940372
561  4 0.0000 14.714241  1.589174  8.585690
562  4 0.0000 14.714241  1.589174 17.940372
563  4 0.0000 14.714241  6.993958  8.585690
564  4 0.0000 14.714241  6.993958 17.940372
565  4 0.0000 14.714241 12.398742  8.585690
566  4 0.0000 14.714241 12.398742 17.940372
567  4 0.0000 14.714241 17.803526  8.585690
568  4 0.0000 14.714241 17.803526 17.940372
569  4 0.0000 19.895715  1.589174  8.585690
570  4 0.0000 19.895715  1.589174 17.940372
571  4 0.0000 19.895715  6.993958  8.585690
572  4 0.0000 19.895715  6.993958 17.940372
573  4 0.0000 19.895715 12.398742  8.585690
574  4 0.0000 19.895715 12.398742 17.940372
575  4 0.0000 19.895715 17.803526  8.585690
576  4 0.0000 19.895715 17.803526 17.940372

