Generated by pymatgen.io.lammps.data.LammpsData

1000  atoms

   2  atom types

0.000000 24.035557  xlo xhi
0.000000 24.035557  ylo yhi
0.000000 24.035557  zlo zhi

Masses

1  40.0780
2  15.9994

Atoms

1     1 0.0000  0.000000  0.000000  0.000000
2     1 0.0000  0.000000  0.000000  4.807111
3     1 0.0000  0.000000  0.000000  9.614223
4     1 0.0000  0.000000  0.000000 14.421334
5     1 0.0000  0.000000  0.000000 19.228446
6     1 0.0000  0.000000  4.807111 -0.000000
7     1 0.0000  0.000000  4.807111  4.807111
8     1 0.0000  0.000000  4.807111  9.614223
9     1 0.0000  0.000000  4.807111 14.421334
10    1 0.0000  0.000000  4.807111 19.228446
11    1 0.0000  0.000000  9.614223 -0.000000
12    1 0.0000  0.000000  9.614223  4.807111
13    1 0.0000  0.000000  9.614223  9.614223
14    1 0.0000  0.000000  9.614223 14.421334
15    1 0.0000  0.000000  9.614223 19.228446
16    1 0.0000  0.000000 14.421334 -0.000000
17    1 0.0000  0.000000 14.421334  4.807111
18    1 0.0000  0.000000 14.421334  9.614223
19    1 0.0000  0.000000 14.421334 14.421334
20    1 0.0000  0.000000 14.421334 19.228446
21    1 0.0000  0.000000 19.228446 -0.000000
22    1 0.0000  0.000000 19.228446  4.807111
23    1 0.0000  0.000000 19.228446  9.614223
24    1 0.0000  0.000000 19.228446 14.421334
25    1 0.0000  0.000000 19.228446 19.228446
26    1 0.0000  4.807111 -0.000000  0.000000
27    1 0.0000  4.807111  0.000000  4.807111
28    1 0.0000  4.807111  0.000000  9.614223
29    1 0.0000  4.807111  0.000000 14.421334
30    1 0.0000  4.807111  0.000000 19.228446
31    1 0.0000  4.807111  4.807111 -0.000000
32    1 0.0000  4.807111  4.807111  4.807111
33    1 0.0000  4.807111  4.807111  9.614223
34    1 0.0000  4.807111  4.807111 14.421334
35    1 0.0000  4.807111  4.807111 19.228446
36    1 0.0000  4.807111  9.614223 -0.000000
37    1 0.0000  4.807111  9.614223  4.807111
38    1 0.0000  4.807111  9.614223  9.614223
39    1 0.0000  4.807111  9.614223 14.421334
40    1 0.0000  4.807111  9.614223 19.228446
41    1 0.0000  4.807111 14.421334 -0.000000
42    1 0.0000  4.807111 14.421334  4.807111
43    1 0.0000  4.807111 14.421334  9.614223
44    1 0.0000  4.807111 14.421334 14.421334
45    1 0.0000  4.807111 14.421334 19.228446
46    1 0.0000  4.807111 19.228446 -0.000000
47    1 0.0000  4.807111 19.228446  4.807111
48    1 0.0000  4.807111 19.228446  9.614223
49    1 0.0000  4.807111 19.228446 14.421334
50    1 0.0000  4.807111 19.228446 19.228446
51    1 0.0000  9.614223 -0.000000  0.000000
52    1 0.0000  9.614223  0.000000  4.807111
53    1 0.0000  9.614223  0.000000  9.614223
54    1 0.0000  9.614223  0.000000 14.421334
55    1 0.0000  9.614223  0.000000 19.228446
56    1 0.0000  9.614223  4.807111 -0.000000
57    1 0.0000  9.614223  4.807111  4.807111
58    1 0.0000  9.614223  4.807111  9.614223
59    1 0.0000  9.614223  4.807111 14.421334
60    1 0.0000  9.614223  4.807111 19.228446
61    1 0.0000  9.614223  9.614223 -0.000000
62    1 0.0000  9.614223  9.614223  4.807111
63    1 0.0000  9.614223  9.614223  9.614223
64    1 0.0000  9.614223  9.614223 14.421334
65    1 0.0000  9.614223  9.614223 19.228446
66    1 0.0000  9.614223 14.421334 -0.000000
67    1 0.0000  9.614223 14.421334  4.807111
68    1 0.0000  9.614223 14.421334  9.614223
69    1 0.0000  9.614223 14.421334 14.421334
70    1 0.0000  9.614223 14.421334 19.228446
71    1 0.0000  9.614223 19.228446 -0.000000
72    1 0.0000  9.614223 19.228446  4.807111
73    1 0.0000  9.614223 19.228446  9.614223
74    1 0.0000  9.614223 19.228446 14.421334
75    1 0.0000  9.614223 19.228446 19.228446
76    1 0.0000 14.421334 -0.000000  0.000000
77    1 0.0000 14.421334  0.000000  4.807111
78    1 0.0000 14.421334  0.000000  9.614223
79    1 0.0000 14.421334  0.000000 14.421334
80    1 0.0000 14.421334  0.000000 19.228446
81    1 0.0000 14.421334  4.807111  0.000000
82    1 0.0000 14.421334  4.807111  4.807111
83    1 0.0000 14.421334  4.807111  9.614223
84    1 0.0000 14.421334  4.807111 14.421334
85    1 0.0000 14.421334  4.807111 19.228446
86    1 0.0000 14.421334  9.614223 -0.000000
87    1 0.0000 14.421334  9.614223  4.807111
88    1 0.0000 14.421334  9.614223  9.614223
89    1 0.0000 14.421334  9.614223 14.421334
90    1 0.0000 14.421334  9.614223 19.228446
91    1 0.0000 14.421334 14.421334 -0.000000
92    1 0.0000 14.421334 14.421334  4.807111
93    1 0.0000 14.421334 14.421334  9.614223
94    1 0.0000 14.421334 14.421334 14.421334
95    1 0.0000 14.421334 14.421334 19.228446
96    1 0.0000 14.421334 19.228446 -0.000000
97    1 0.0000 14.421334 19.228446  4.807111
98    1 0.0000 14.421334 19.228446  9.614223
99    1 0.0000 14.421334 19.228446 14.421334
100   1 0.0000 14.421334 19.228446 19.228446
101   1 0.0000 19.228446 -0.000000  0.000000
102   1 0.0000 19.228446  0.000000  4.807111
103   1 0.0000 19.228446  0.000000  9.614223
104   1 0.0000 19.228446  0.000000 14.421334
105   1 0.0000 19.228446  0.000000 19.228446
106   1 0.0000 19.228446  4.807111  0.000000
107   1 0.0000 19.228446  4.807111  4.807111
108   1 0.0000 19.228446  4.807111  9.614223
109   1 0.0000 19.228446  4.807111 14.421334
110   1 0.0000 19.228446  4.807111 19.228446
111   1 0.0000 19.228446  9.614223 -0.000000
112   1 0.0000 19.228446  9.614223  4.807111
113   1 0.0000 19.228446  9.614223  9.614223
114   1 0.0000 19.228446  9.614223 14.421334
115   1 0.0000 19.228446  9.614223 19.228446
116   1 0.0000 19.228446 14.421334  0.000000
117   1 0.0000 19.228446 14.421334  4.807111
118   1 0.0000 19.228446 14.421334  9.614223
119   1 0.0000 19.228446 14.421334 14.421334
120   1 0.0000 19.228446 14.421334 19.228446
121   1 0.0000 19.228446 19.228446 -0.000000
122   1 0.0000 19.228446 19.228446  4.807111
123   1 0.0000 19.228446 19.228446  9.614223
124   1 0.0000 19.228446 19.228446 14.421334
125   1 0.0000 19.228446 19.228446 19.228446
126   1 0.0000  0.000000  2.403556  2.403556
127   1 0.0000  0.000000  2.403556  7.210667
128   1 0.0000  0.000000  2.403556 12.017778
129   1 0.0000  0.000000  2.403556 16.824890
130   1 0.0000  0.000000  2.403556 21.632001
131   1 0.0000  0.000000  7.210667  2.403556
132   1 0.0000  0.000000  7.210667  7.210667
133   1 0.0000  0.000000  7.210667 12.017778
134   1 0.0000  0.000000  7.210667 16.824890
135   1 0.0000  0.000000  7.210667 21.632001
136   1 0.0000  0.000000 12.017778  2.403556
137   1 0.0000  0.000000 12.017778  7.210667
138   1 0.0000  0.000000 12.017778 12.017778
139   1 0.0000  0.000000 12.017778 16.824890
140   1 0.0000  0.000000 12.017778 21.632001
141   1 0.0000  0.000000 16.824890  2.403556
142   1 0.0000  0.000000 16.824890  7.210667
143   1 0.0000  0.000000 16.824890 12.017778
144   1 0.0000  0.000000 16.824890 16.824890
145   1 0.0000  0.000000 16.824890 21.632001
146   1 0.0000  0.000000 21.632001  2.403556
147   1 0.0000  0.000000 21.632001  7.210667
148   1 0.0000  0.000000 21.632001 12.017778
149   1 0.0000  0.000000 21.632001 16.824890
150   1 0.0000  0.000000 21.632001 21.632001
151   1 0.0000  4.807111  2.403556  2.403556
152   1 0.0000  4.807111  2.403556  7.210667
153   1 0.0000  4.807111  2.403556 12.017778
154   1 0.0000  4.807111  2.403556 16.824890
155   1 0.0000  4.807111  2.403556 21.632001
156   1 0.0000  4.807111  7.210667  2.403556
157   1 0.0000  4.807111  7.210667  7.210667
158   1 0.0000  4.807111  7.210667 12.017778
159   1 0.0000  4.807111  7.210667 16.824890
160   1 0.0000  4.807111  7.210667 21.632001
161   1 0.0000  4.807111 12.017778  2.403556
162   1 0.0000  4.807111 12.017778  7.210667
163   1 0.0000  4.807111 12.017778 12.017778
164   1 0.0000  4.807111 12.017778 16.824890
165   1 0.0000  4.807111 12.017778 21.632001
166   1 0.0000  4.807111 16.824890  2.403556
167   1 0.0000  4.807111 16.824890  7.210667
168   1 0.0000  4.807111 16.824890 12.017778
169   1 0.0000  4.807111 16.824890 16.824890
170   1 0.0000  4.807111 16.824890 21.632001
171   1 0.0000  4.807111 21.632001  2.403556
172   1 0.0000  4.807111 21.632001  7.210667
173   1 0.0000  4.807111 21.632001 12.017778
174   1 0.0000  4.807111 21.632001 16.824890
175   1 0.0000  4.807111 21.632001 21.632001
176   1 0.0000  9.614223  2.403556  2.403556
177   1 0.0000  9.614223  2.403556  7.210667
178   1 0.0000  9.614223  2.403556 12.017778
179   1 0.0000  9.614223  2.403556 16.824890
180   1 0.0000  9.614223  2.403556 21.632001
181   1 0.0000  9.614223  7.210667  2.403556
182   1 0.0000  9.614223  7.210667  7.210667
183   1 0.0000  9.614223  7.210667 12.017778
184   1 0.0000  9.614223  7.210667 16.824890
185   1 0.0000  9.614223  7.210667 21.632001
186   1 0.0000  9.614223 12.017778  2.403556
187   1 0.0000  9.614223 12.017778  7.210667
188   1 0.0000  9.614223 12.017778 12.017778
189   1 0.0000  9.614223 12.017778 16.824890
190   1 0.0000  9.614223 12.017778 21.632001
191   1 0.0000  9.614223 16.824890  2.403556
192   1 0.0000  9.614223 16.824890  7.210667
193   1 0.0000  9.614223 16.824890 12.017778
194   1 0.0000  9.614223 16.824890 16.824890
195   1 0.0000  9.614223 16.824890 21.632001
196   1 0.0000  9.614223 21.632001  2.403556
197   1 0.0000  9.614223 21.632001  7.210667
198   1 0.0000  9.614223 21.632001 12.017778
199   1 0.0000  9.614223 21.632001 16.824890
200   1 0.0000  9.614223 21.632001 21.632001
201   1 0.0000 14.421334  2.403556  2.403556
202   1 0.0000 14.421334  2.403556  7.210667
203   1 0.0000 14.421334  2.403556 12.017778
204   1 0.0000 14.421334  2.403556 16.824890
205   1 0.0000 14.421334  2.403556 21.632001
206   1 0.0000 14.421334  7.210667  2.403556
207   1 0.0000 14.421334  7.210667  7.210667
208   1 0.0000 14.421334  7.210667 12.017778
209   1 0.0000 14.421334  7.210667 16.824890
210   1 0.0000 14.421334  7.210667 21.632001
211   1 0.0000 14.421334 12.017778  2.403556
212   1 0.0000 14.421334 12.017778  7.210667
213   1 0.0000 14.421334 12.017778 12.017778
214   1 0.0000 14.421334 12.017778 16.824890
215   1 0.0000 14.421334 12.017778 21.632001
216   1 0.0000 14.421334 16.824890  2.403556
217   1 0.0000 14.421334 16.824890  7.210667
218   1 0.0000 14.421334 16.824890 12.017778
219   1 0.0000 14.421334 16.824890 16.824890
220   1 0.0000 14.421334 16.824890 21.632001
221   1 0.0000 14.421334 21.632001  2.403556
222   1 0.0000 14.421334 21.632001  7.210667
223   1 0.0000 14.421334 21.632001 12.017778
224   1 0.0000 14.421334 21.632001 16.824890
225   1 0.0000 14.421334 21.632001 21.632001
226   1 0.0000 19.228446  2.403556  2.403556
227   1 0.0000 19.228446  2.403556  7.210667
228   1 0.0000 19.228446  2.403556 12.017778
229   1 0.0000 19.228446  2.403556 16.824890
230   1 0.0000 19.228446  2.403556 21.632001
231   1 0.0000 19.228446  7.210667  2.403556
232   1 0.0000 19.228446  7.210667  7.210667
233   1 0.0000 19.228446  7.210667 12.017778
234   1 0.0000 19.228446  7.210667 16.824890
235   1 0.0000 19.228446  7.210667 21.632001
236   1 0.0000 19.228446 12.017778  2.403556
237   1 0.0000 19.228446 12.017778  7.210667
238   1 0.0000 19.228446 12.017778 12.017778
239   1 0.0000 19.228446 12.017778 16.824890
240   1 0.0000 19.228446 12.017778 21.632001
241   1 0.0000 19.228446 16.824890  2.403556
242   1 0.0000 19.228446 16.824890  7.210667
243   1 0.0000 19.228446 16.824890 12.017778
244   1 0.0000 19.228446 16.824890 16.824890
245   1 0.0000 19.228446 16.824890 21.632001
246   1 0.0000 19.228446 21.632001  2.403556
247   1 0.0000 19.228446 21.632001  7.210667
248   1 0.0000 19.228446 21.632001 12.017778
249   1 0.0000 19.228446 21.632001 16.824890
250   1 0.0000 19.228446 21.632001 21.632001
251   1 0.0000  2.403556  0.000000  2.403556
252   1 0.0000  2.403556  0.000000  7.210667
253   1 0.0000  2.403556  0.000000 12.017778
254   1 0.0000  2.403556  0.000000 16.824890
255   1 0.0000  2.403556  0.000000 21.632001
256   1 0.0000  2.403556  4.807111  2.403556
257   1 0.0000  2.403556  4.807111  7.210667
258   1 0.0000  2.403556  4.807111 12.017778
259   1 0.0000  2.403556  4.807111 16.824890
260   1 0.0000  2.403556  4.807111 21.632001
261   1 0.0000  2.403556  9.614223  2.403556
262   1 0.0000  2.403556  9.614223  7.210667
263   1 0.0000  2.403556  9.614223 12.017778
264   1 0.0000  2.403556  9.614223 16.824890
265   1 0.0000  2.403556  9.614223 21.632001
266   1 0.0000  2.403556 14.421334  2.403556
267   1 0.0000  2.403556 14.421334  7.210667
268   1 0.0000  2.403556 14.421334 12.017778
269   1 0.0000  2.403556 14.421334 16.824890
270   1 0.0000  2.403556 14.421334 21.632001
271   1 0.0000  2.403556 19.228446  2.403556
272   1 0.0000  2.403556 19.228446  7.210667
273   1 0.0000  2.403556 19.228446 12.017778
274   1 0.0000  2.403556 19.228446 16.824890
275   1 0.0000  2.403556 19.228446 21.632001
276   1 0.0000  7.210667  0.000000  2.403556
277   1 0.0000  7.210667  0.000000  7.210667
278   1 0.0000  7.210667  0.000000 12.017778
279   1 0.0000  7.210667  0.000000 16.824890
280   1 0.0000  7.210667  0.000000 21.632001
281   1 0.0000  7.210667  4.807111  2.403556
282   1 0.0000  7.210667  4.807111  7.210667
283   1 0.0000  7.210667  4.807111 12.017778
284   1 0.0000  7.210667  4.807111 16.824890
285   1 0.0000  7.210667  4.807111 21.632001
286   1 0.0000  7.210667  9.614223  2.403556
287   1 0.0000  7.210667  9.614223  7.210667
288   1 0.0000  7.210667  9.614223 12.017778
289   1 0.0000  7.210667  9.614223 16.824890
290   1 0.0000  7.210667  9.614223 21.632001
291   1 0.0000  7.210667 14.421334  2.403556
292   1 0.0000  7.210667 14.421334  7.210667
293   1 0.0000  7.210667 14.421334 12.017778
294   1 0.0000  7.210667 14.421334 16.824890
295   1 0.0000  7.210667 14.421334 21.632001
296   1 0.0000  7.210667 19.228446  2.403556
297   1 0.0000  7.210667 19.228446  7.210667
298   1 0.0000  7.210667 19.228446 12.017778
299   1 0.0000  7.210667 19.228446 16.824890
300   1 0.0000  7.210667 19.228446 21.632001
301   1 0.0000 12.017778  0.000000  2.403556
302   1 0.0000 12.017778  0.000000  7.210667
303   1 0.0000 12.017778  0.000000 12.017778
304   1 0.0000 12.017778  0.000000 16.824890
305   1 0.0000 12.017778  0.000000 21.632001
306   1 0.0000 12.017778  4.807111  2.403556
307   1 0.0000 12.017778  4.807111  7.210667
308   1 0.0000 12.017778  4.807111 12.017778
309   1 0.0000 12.017778  4.807111 16.824890
310   1 0.0000 12.017778  4.807111 21.632001
311   1 0.0000 12.017778  9.614223  2.403556
312   1 0.0000 12.017778  9.614223  7.210667
313   1 0.0000 12.017778  9.614223 12.017778
314   1 0.0000 12.017778  9.614223 16.824890
315   1 0.0000 12.017778  9.614223 21.632001
316   1 0.0000 12.017778 14.421334  2.403556
317   1 0.0000 12.017778 14.421334  7.210667
318   1 0.0000 12.017778 14.421334 12.017778
319   1 0.0000 12.017778 14.421334 16.824890
320   1 0.0000 12.017778 14.421334 21.632001
321   1 0.0000 12.017778 19.228446  2.403556
322   1 0.0000 12.017778 19.228446  7.210667
323   1 0.0000 12.017778 19.228446 12.017778
324   1 0.0000 12.017778 19.228446 16.824890
325   1 0.0000 12.017778 19.228446 21.632001
326   1 0.0000 16.824890  0.000000  2.403556
327   1 0.0000 16.824890  0.000000  7.210667
328   1 0.0000 16.824890  0.000000 12.017778
329   1 0.0000 16.824890  0.000000 16.824890
330   1 0.0000 16.824890  0.000000 21.632001
331   1 0.0000 16.824890  4.807111  2.403556
332   1 0.0000 16.824890  4.807111  7.210667
333   1 0.0000 16.824890  4.807111 12.017778
334   1 0.0000 16.824890  4.807111 16.824890
335   1 0.0000 16.824890  4.807111 21.632001
336   1 0.0000 16.824890  9.614223  2.403556
337   1 0.0000 16.824890  9.614223  7.210667
338   1 0.0000 16.824890  9.614223 12.017778
339   1 0.0000 16.824890  9.614223 16.824890
340   1 0.0000 16.824890  9.614223 21.632001
341   1 0.0000 16.824890 14.421334  2.403556
342   1 0.0000 16.824890 14.421334  7.210667
343   1 0.0000 16.824890 14.421334 12.017778
344   1 0.0000 16.824890 14.421334 16.824890
345   1 0.0000 16.824890 14.421334 21.632001
346   1 0.0000 16.824890 19.228446  2.403556
347   1 0.0000 16.824890 19.228446  7.210667
348   1 0.0000 16.824890 19.228446 12.017778
349   1 0.0000 16.824890 19.228446 16.824890
350   1 0.0000 16.824890 19.228446 21.632001
351   1 0.0000 21.632001  0.000000  2.403556
352   1 0.0000 21.632001  0.000000  7.210667
353   1 0.0000 21.632001  0.000000 12.017778
354   1 0.0000 21.632001  0.000000 16.824890
355   1 0.0000 21.632001  0.000000 21.632001
356   1 0.0000 21.632001  4.807111  2.403556
357   1 0.0000 21.632001  4.807111  7.210667
358   1 0.0000 21.632001  4.807111 12.017778
359   1 0.0000 21.632001  4.807111 16.824890
360   1 0.0000 21.632001  4.807111 21.632001
361   1 0.0000 21.632001  9.614223  2.403556
362   1 0.0000 21.632001  9.614223  7.210667
363   1 0.0000 21.632001  9.614223 12.017778
364   1 0.0000 21.632001  9.614223 16.824890
365   1 0.0000 21.632001  9.614223 21.632001
366   1 0.0000 21.632001 14.421334  2.403556
367   1 0.0000 21.632001 14.421334  7.210667
368   1 0.0000 21.632001 14.421334 12.017778
369   1 0.0000 21.632001 14.421334 16.824890
370   1 0.0000 21.632001 14.421334 21.632001
371   1 0.0000 21.632001 19.228446  2.403556
372   1 0.0000 21.632001 19.228446  7.210667
373   1 0.0000 21.632001 19.228446 12.017778
374   1 0.0000 21.632001 19.228446 16.824890
375   1 0.0000 21.632001 19.228446 21.632001
376   1 0.0000  2.403556  2.403556 -0.000000
377   1 0.0000  2.403556  2.403556  4.807111
378   1 0.0000  2.403556  2.403556  9.614223
379   1 0.0000  2.403556  2.403556 14.421334
380   1 0.0000  2.403556  2.403556 19.228446
381   1 0.0000  2.403556  7.210667 -0.000000
382   1 0.0000  2.403556  7.210667  4.807111
383   1 0.0000  2.403556  7.210667  9.614223
384   1 0.0000  2.403556  7.210667 14.421334
385   1 0.0000  2.403556  7.210667 19.228446
386   1 0.0000  2.403556 12.017778 -0.000000
387   1 0.0000  2.403556 12.017778  4.807111
388   1 0.0000  2.403556 12.017778  9.614223
389   1 0.0000  2.403556 12.017778 14.421334
390   1 0.0000  2.403556 12.017778 19.228446
391   1 0.0000  2.403556 16.824890 -0.000000
392   1 0.0000  2.403556 16.824890  4.807111
393   1 0.0000  2.403556 16.824890  9.614223
394   1 0.0000  2.403556 16.824890 14.421334
395   1 0.0000  2.403556 16.824890 19.228446
396   1 0.0000  2.403556 21.632001 -0.000000
397   1 0.0000  2.403556 21.632001  4.807111
398   1 0.0000  2.403556 21.632001  9.614223
399   1 0.0000  2.403556 21.632001 14.421334
400   1 0.0000  2.403556 21.632001 19.228446
401   1 0.0000  7.210667  2.403556 -0.000000
402   1 0.0000  7.210667  2.403556  4.807111
403   1 0.0000  7.210667  2.403556  9.614223
404   1 0.0000  7.210667  2.403556 14.421334
405   1 0.0000  7.210667  2.403556 19.228446
406   1 0.0000  7.210667  7.210667 -0.000000
407   1 0.0000  7.210667  7.210667  4.807111
408   1 0.0000  7.210667  7.210667  9.614223
409   1 0.0000  7.210667  7.210667 14.421334
410   1 0.0000  7.210667  7.210667 19.228446
411   1 0.0000  7.210667 12.017778  0.000000
412   1 0.0000  7.210667 12.017778  4.807111
413   1 0.0000  7.210667 12.017778  9.614223
414   1 0.0000  7.210667 12.017778 14.421334
415   1 0.0000  7.210667 12.017778 19.228446
416   1 0.0000  7.210667 16.824890 -0.000000
417   1 0.0000  7.210667 16.824890  4.807111
418   1 0.0000  7.210667 16.824890  9.614223
419   1 0.0000  7.210667 16.824890 14.421334
420   1 0.0000  7.210667 16.824890 19.228446
421   1 0.0000  7.210667 21.632001 -0.000000
422   1 0.0000  7.210667 21.632001  4.807111
423   1 0.0000  7.210667 21.632001  9.614223
424   1 0.0000  7.210667 21.632001 14.421334
425   1 0.0000  7.210667 21.632001 19.228446
426   1 0.0000 12.017778  2.403556  0.000000
427   1 0.0000 12.017778  2.403556  4.807111
428   1 0.0000 12.017778  2.403556  9.614223
429   1 0.0000 12.017778  2.403556 14.421334
430   1 0.0000 12.017778  2.403556 19.228446
431   1 0.0000 12.017778  7.210667 -0.000000
432   1 0.0000 12.017778  7.210667  4.807111
433   1 0.0000 12.017778  7.210667  9.614223
434   1 0.0000 12.017778  7.210667 14.421334
435   1 0.0000 12.017778  7.210667 19.228446
436   1 0.0000 12.017778 12.017778  0.000000
437   1 0.0000 12.017778 12.017778  4.807111
438   1 0.0000 12.017778 12.017778  9.614223
439   1 0.0000 12.017778 12.017778 14.421334
440   1 0.0000 12.017778 12.017778 19.228446
441   1 0.0000 12.017778 16.824890 -0.000000
442   1 0.0000 12.017778 16.824890  4.807111
443   1 0.0000 12.017778 16.824890  9.614223
444   1 0.0000 12.017778 16.824890 14.421334
445   1 0.0000 12.017778 16.824890 19.228446
446   1 0.0000 12.017778 21.632001 -0.000000
447   1 0.0000 12.017778 21.632001  4.807111
448   1 0.0000 12.017778 21.632001  9.614223
449   1 0.0000 12.017778 21.632001 14.421334
450   1 0.0000 12.017778 21.632001 19.228446
451   1 0.0000 16.824890  2.403556  0.000000
452   1 0.0000 16.824890  2.403556  4.807111
453   1 0.0000 16.824890  2.403556  9.614223
454   1 0.0000 16.824890  2.403556 14.421334
455   1 0.0000 16.824890  2.403556 19.228446
456   1 0.0000 16.824890  7.210667  0.000000
457   1 0.0000 16.824890  7.210667  4.807111
458   1 0.0000 16.824890  7.210667  9.614223
459   1 0.0000 16.824890  7.210667 14.421334
460   1 0.0000 16.824890  7.210667 19.228446
461   1 0.0000 16.824890 12.017778 -0.000000
462   1 0.0000 16.824890 12.017778  4.807111
463   1 0.0000 16.824890 12.017778  9.614223
464   1 0.0000 16.824890 12.017778 14.421334
465   1 0.0000 16.824890 12.017778 19.228446
466   1 0.0000 16.824890 16.824890  0.000000
467   1 0.0000 16.824890 16.824890  4.807111
468   1 0.0000 16.824890 16.824890  9.614223
469   1 0.0000 16.824890 16.824890 14.421334
470   1 0.0000 16.824890 16.824890 19.228446
471   1 0.0000 16.824890 21.632001 -0.000000
472   1 0.0000 16.824890 21.632001  4.807111
473   1 0.0000 16.824890 21.632001  9.614223
474   1 0.0000 16.824890 21.632001 14.421334
475   1 0.0000 16.824890 21.632001 19.228446
476   1 0.0000 21.632001  2.403556 -0.000000
477   1 0.0000 21.632001  2.403556  4.807111
478   1 0.0000 21.632001  2.403556  9.614223
479   1 0.0000 21.632001  2.403556 14.421334
480   1 0.0000 21.632001  2.403556 19.228446
481   1 0.0000 21.632001  7.210667 -0.000000
482   1 0.0000 21.632001  7.210667  4.807111
483   1 0.0000 21.632001  7.210667  9.614223
484   1 0.0000 21.632001  7.210667 14.421334
485   1 0.0000 21.632001  7.210667 19.228446
486   1 0.0000 21.632001 12.017778  0.000000
487   1 0.0000 21.632001 12.017778  4.807111
488   1 0.0000 21.632001 12.017778  9.614223
489   1 0.0000 21.632001 12.017778 14.421334
490   1 0.0000 21.632001 12.017778 19.228446
491   1 0.0000 21.632001 16.824890 -0.000000
492   1 0.0000 21.632001 16.824890  4.807111
493   1 0.0000 21.632001 16.824890  9.614223
494   1 0.0000 21.632001 16.824890 14.421334
495   1 0.0000 21.632001 16.824890 19.228446
496   1 0.0000 21.632001 21.632001 -0.000000
497   1 0.0000 21.632001 21.632001  4.807111
498   1 0.0000 21.632001 21.632001  9.614223
499   1 0.0000 21.632001 21.632001 14.421334
500   1 0.0000 21.632001 21.632001 19.228446
501   2 0.0000  0.000000  2.403556 -0.000000
502   2 0.0000  0.000000  2.403556  4.807111
503   2 0.0000  0.000000  2.403556  9.614223
504   2 0.0000  0.000000  2.403556 14.421334
505   2 0.0000  0.000000  2.403556 19.228446
506   2 0.0000  0.000000  7.210667 -0.000000
507   2 0.0000  0.000000  7.210667  4.807111
508   2 0.0000  0.000000  7.210667  9.614223
509   2 0.0000  0.000000  7.210667 14.421334
510   2 0.0000  0.000000  7.210667 19.228446
511   2 0.0000  0.000000 12.017778 -0.000000
512   2 0.0000  0.000000 12.017778  4.807111
513   2 0.0000  0.000000 12.017778  9.614223
514   2 0.0000  0.000000 12.017778 14.421334
515   2 0.0000  0.000000 12.017778 19.228446
516   2 0.0000  0.000000 16.824890 -0.000000
517   2 0.0000  0.000000 16.824890  4.807111
518   2 0.0000  0.000000 16.824890  9.614223
519   2 0.0000  0.000000 16.824890 14.421334
520   2 0.0000  0.000000 16.824890 19.228446
521   2 0.0000  0.000000 21.632001 -0.000000
522   2 0.0000  0.000000 21.632001  4.807111
523   2 0.0000  0.000000 21.632001  9.614223
524   2 0.0000  0.000000 21.632001 14.421334
525   2 0.0000  0.000000 21.632001 19.228446
526   2 0.0000  4.807111  2.403556 -0.000000
527   2 0.0000  4.807111  2.403556  4.807111
528   2 0.0000  4.807111  2.403556  9.614223
529   2 0.0000  4.807111  2.403556 14.421334
530   2 0.0000  4.807111  2.403556 19.228446
531   2 0.0000  4.807111  7.210667 -0.000000
532   2 0.0000  4.807111  7.210667  4.807111
533   2 0.0000  4.807111  7.210667  9.614223
534   2 0.0000  4.807111  7.210667 14.421334
535   2 0.0000  4.807111  7.210667 19.228446
536   2 0.0000  4.807111 12.017778 -0.000000
537   2 0.0000  4.807111 12.017778  4.807111
538   2 0.0000  4.807111 12.017778  9.614223
539   2 0.0000  4.807111 12.017778 14.421334
540   2 0.0000  4.807111 12.017778 19.228446
541   2 0.0000  4.807111 16.824890 -0.000000
542   2 0.0000  4.807111 16.824890  4.807111
543   2 0.0000  4.807111 16.824890  9.614223
544   2 0.0000  4.807111 16.824890 14.421334
545   2 0.0000  4.807111 16.824890 19.228446
546   2 0.0000  4.807111 21.632001 -0.000000
547   2 0.0000  4.807111 21.632001  4.807111
548   2 0.0000  4.807111 21.632001  9.614223
549   2 0.0000  4.807111 21.632001 14.421334
550   2 0.0000  4.807111 21.632001 19.228446
551   2 0.0000  9.614223  2.403556  0.000000
552   2 0.0000  9.614223  2.403556  4.807111
553   2 0.0000  9.614223  2.403556  9.614223
554   2 0.0000  9.614223  2.403556 14.421334
555   2 0.0000  9.614223  2.403556 19.228446
556   2 0.0000  9.614223  7.210667 -0.000000
557   2 0.0000  9.614223  7.210667  4.807111
558   2 0.0000  9.614223  7.210667  9.614223
559   2 0.0000  9.614223  7.210667 14.421334
560   2 0.0000  9.614223  7.210667 19.228446
561   2 0.0000  9.614223 12.017778 -0.000000
562   2 0.0000  9.614223 12.017778  4.807111
563   2 0.0000  9.614223 12.017778  9.614223
564   2 0.0000  9.614223 12.017778 14.421334
565   2 0.0000  9.614223 12.017778 19.228446
566   2 0.0000  9.614223 16.824890 -0.000000
567   2 0.0000  9.614223 16.824890  4.807111
568   2 0.0000  9.614223 16.824890  9.614223
569   2 0.0000  9.614223 16.824890 14.421334
570   2 0.0000  9.614223 16.824890 19.228446
571   2 0.0000  9.614223 21.632001 -0.000000
572   2 0.0000  9.614223 21.632001  4.807111
573   2 0.0000  9.614223 21.632001  9.614223
574   2 0.0000  9.614223 21.632001 14.421334
575   2 0.0000  9.614223 21.632001 19.228446
576   2 0.0000 14.421334  2.403556  0.000000
577   2 0.0000 14.421334  2.403556  4.807111
578   2 0.0000 14.421334  2.403556  9.614223
579   2 0.0000 14.421334  2.403556 14.421334
580   2 0.0000 14.421334  2.403556 19.228446
581   2 0.0000 14.421334  7.210667  0.000000
582   2 0.0000 14.421334  7.210667  4.807111
583   2 0.0000 14.421334  7.210667  9.614223
584   2 0.0000 14.421334  7.210667 14.421334
585   2 0.0000 14.421334  7.210667 19.228446
586   2 0.0000 14.421334 12.017778 -0.000000
587   2 0.0000 14.421334 12.017778  4.807111
588   2 0.0000 14.421334 12.017778  9.614223
589   2 0.0000 14.421334 12.017778 14.421334
590   2 0.0000 14.421334 12.017778 19.228446
591   2 0.0000 14.421334 16.824890 -0.000000
592   2 0.0000 14.421334 16.824890  4.807111
593   2 0.0000 14.421334 16.824890  9.614223
594   2 0.0000 14.421334 16.824890 14.421334
595   2 0.0000 14.421334 16.824890 19.228446
596   2 0.0000 14.421334 21.632001 -0.000000
597   2 0.0000 14.421334 21.632001  4.807111
598   2 0.0000 14.421334 21.632001  9.614223
599   2 0.0000 14.421334 21.632001 14.421334
600   2 0.0000 14.421334 21.632001 19.228446
601   2 0.0000 19.228446  2.403556  0.000000
602   2 0.0000 19.228446  2.403556  4.807111
603   2 0.0000 19.228446  2.403556  9.614223
604   2 0.0000 19.228446  2.403556 14.421334
605   2 0.0000 19.228446  2.403556 19.228446
606   2 0.0000 19.228446  7.210667  0.000000
607   2 0.0000 19.228446  7.210667  4.807111
608   2 0.0000 19.228446  7.210667  9.614223
609   2 0.0000 19.228446  7.210667 14.421334
610   2 0.0000 19.228446  7.210667 19.228446
611   2 0.0000 19.228446 12.017778 -0.000000
612   2 0.0000 19.228446 12.017778  4.807111
613   2 0.0000 19.228446 12.017778  9.614223
614   2 0.0000 19.228446 12.017778 14.421334
615   2 0.0000 19.228446 12.017778 19.228446
616   2 0.0000 19.228446 16.824890  0.000000
617   2 0.0000 19.228446 16.824890  4.807111
618   2 0.0000 19.228446 16.824890  9.614223
619   2 0.0000 19.228446 16.824890 14.421334
620   2 0.0000 19.228446 16.824890 19.228446
621   2 0.0000 19.228446 21.632001  0.000000
622   2 0.0000 19.228446 21.632001  4.807111
623   2 0.0000 19.228446 21.632001  9.614223
624   2 0.0000 19.228446 21.632001 14.421334
625   2 0.0000 19.228446 21.632001 19.228446
626   2 0.0000  0.000000  0.000000  2.403556
627   2 0.0000  0.000000  0.000000  7.210667
628   2 0.0000  0.000000  0.000000 12.017778
629   2 0.0000  0.000000  0.000000 16.824890
630   2 0.0000  0.000000  0.000000 21.632001
631   2 0.0000  0.000000  4.807111  2.403556
632   2 0.0000  0.000000  4.807111  7.210667
633   2 0.0000  0.000000  4.807111 12.017778
634   2 0.0000  0.000000  4.807111 16.824890
635   2 0.0000  0.000000  4.807111 21.632001
636   2 0.0000  0.000000  9.614223  2.403556
637   2 0.0000  0.000000  9.614223  7.210667
638   2 0.0000  0.000000  9.614223 12.017778
639   2 0.0000  0.000000  9.614223 16.824890
640   2 0.0000  0.000000  9.614223 21.632001
641   2 0.0000  0.000000 14.421334  2.403556
642   2 0.0000  0.000000 14.421334  7.210667
643   2 0.0000  0.000000 14.421334 12.017778
644   2 0.0000  0.000000 14.421334 16.824890
645   2 0.0000  0.000000 14.421334 21.632001
646   2 0.0000  0.000000 19.228446  2.403556
647   2 0.0000  0.000000 19.228446  7.210667
648   2 0.0000  0.000000 19.228446 12.017778
649   2 0.0000  0.000000 19.228446 16.824890
650   2 0.0000  0.000000 19.228446 21.632001
651   2 0.0000  4.807111  0.000000  2.403556
652   2 0.0000  4.807111  0.000000  7.210667
653   2 0.0000  4.807111  0.000000 12.017778
654   2 0.0000  4.807111  0.000000 16.824890
655   2 0.0000  4.807111  0.000000 21.632001
656   2 0.0000  4.807111  4.807111  2.403556
657   2 0.0000  4.807111  4.807111  7.210667
658   2 0.0000  4.807111  4.807111 12.017778
659   2 0.0000  4.807111  4.807111 16.824890
660   2 0.0000  4.807111  4.807111 21.632001
661   2 0.0000  4.807111  9.614223  2.403556
662   2 0.0000  4.807111  9.614223  7.210667
663   2 0.0000  4.807111  9.614223 12.017778
664   2 0.0000  4.807111  9.614223 16.824890
665   2 0.0000  4.807111  9.614223 21.632001
666   2 0.0000  4.807111 14.421334  2.403556
667   2 0.0000  4.807111 14.421334  7.210667
668   2 0.0000  4.807111 14.421334 12.017778
669   2 0.0000  4.807111 14.421334 16.824890
670   2 0.0000  4.807111 14.421334 21.632001
671   2 0.0000  4.807111 19.228446  2.403556
672   2 0.0000  4.807111 19.228446  7.210667
673   2 0.0000  4.807111 19.228446 12.017778
674   2 0.0000  4.807111 19.228446 16.824890
675   2 0.0000  4.807111 19.228446 21.632001
676   2 0.0000  9.614223  0.000000  2.403556
677   2 0.0000  9.614223  0.000000  7.210667
678   2 0.0000  9.614223  0.000000 12.017778
679   2 0.0000  9.614223  0.000000 16.824890
680   2 0.0000  9.614223  0.000000 21.632001
681   2 0.0000  9.614223  4.807111  2.403556
682   2 0.0000  9.614223  4.807111  7.210667
683   2 0.0000  9.614223  4.807111 12.017778
684   2 0.0000  9.614223  4.807111 16.824890
685   2 0.0000  9.614223  4.807111 21.632001
686   2 0.0000  9.614223  9.614223  2.403556
687   2 0.0000  9.614223  9.614223  7.210667
688   2 0.0000  9.614223  9.614223 12.017778
689   2 0.0000  9.614223  9.614223 16.824890
690   2 0.0000  9.614223  9.614223 21.632001
691   2 0.0000  9.614223 14.421334  2.403556
692   2 0.0000  9.614223 14.421334  7.210667
693   2 0.0000  9.614223 14.421334 12.017778
694   2 0.0000  9.614223 14.421334 16.824890
695   2 0.0000  9.614223 14.421334 21.632001
696   2 0.0000  9.614223 19.228446  2.403556
697   2 0.0000  9.614223 19.228446  7.210667
698   2 0.0000  9.614223 19.228446 12.017778
699   2 0.0000  9.614223 19.228446 16.824890
700   2 0.0000  9.614223 19.228446 21.632001
701   2 0.0000 14.421334  0.000000  2.403556
702   2 0.0000 14.421334  0.000000  7.210667
703   2 0.0000 14.421334  0.000000 12.017778
704   2 0.0000 14.421334  0.000000 16.824890
705   2 0.0000 14.421334  0.000000 21.632001
706   2 0.0000 14.421334  4.807111  2.403556
707   2 0.0000 14.421334  4.807111  7.210667
708   2 0.0000 14.421334  4.807111 12.017778
709   2 0.0000 14.421334  4.807111 16.824890
710   2 0.0000 14.421334  4.807111 21.632001
711   2 0.0000 14.421334  9.614223  2.403556
712   2 0.0000 14.421334  9.614223  7.210667
713   2 0.0000 14.421334  9.614223 12.017778
714   2 0.0000 14.421334  9.614223 16.824890
715   2 0.0000 14.421334  9.614223 21.632001
716   2 0.0000 14.421334 14.421334  2.403556
717   2 0.0000 14.421334 14.421334  7.210667
718   2 0.0000 14.421334 14.421334 12.017778
719   2 0.0000 14.421334 14.421334 16.824890
720   2 0.0000 14.421334 14.421334 21.632001
721   2 0.0000 14.421334 19.228446  2.403556
722   2 0.0000 14.421334 19.228446  7.210667
723   2 0.0000 14.421334 19.228446 12.017778
724   2 0.0000 14.421334 19.228446 16.824890
725   2 0.0000 14.421334 19.228446 21.632001
726   2 0.0000 19.228446  0.000000  2.403556
727   2 0.0000 19.228446  0.000000  7.210667
728   2 0.0000 19.228446  0.000000 12.017778
729   2 0.0000 19.228446  0.000000 16.824890
730   2 0.0000 19.228446  0.000000 21.632001
731   2 0.0000 19.228446  4.807111  2.403556
732   2 0.0000 19.228446  4.807111  7.210667
733   2 0.0000 19.228446  4.807111 12.017778
734   2 0.0000 19.228446  4.807111 16.824890
735   2 0.0000 19.228446  4.807111 21.632001
736   2 0.0000 19.228446  9.614223  2.403556
737   2 0.0000 19.228446  9.614223  7.210667
738   2 0.0000 19.228446  9.614223 12.017778
739   2 0.0000 19.228446  9.614223 16.824890
740   2 0.0000 19.228446  9.614223 21.632001
741   2 0.0000 19.228446 14.421334  2.403556
742   2 0.0000 19.228446 14.421334  7.210667
743   2 0.0000 19.228446 14.421334 12.017778
744   2 0.0000 19.228446 14.421334 16.824890
745   2 0.0000 19.228446 14.421334 21.632001
746   2 0.0000 19.228446 19.228446  2.403556
747   2 0.0000 19.228446 19.228446  7.210667
748   2 0.0000 19.228446 19.228446 12.017778
749   2 0.0000 19.228446 19.228446 16.824890
750   2 0.0000 19.228446 19.228446 21.632001
751   2 0.0000  2.403556  2.403556  2.403556
752   2 0.0000  2.403556  2.403556  7.210667
753   2 0.0000  2.403556  2.403556 12.017778
754   2 0.0000  2.403556  2.403556 16.824890
755   2 0.0000  2.403556  2.403556 21.632001
756   2 0.0000  2.403556  7.210667  2.403556
757   2 0.0000  2.403556  7.210667  7.210667
758   2 0.0000  2.403556  7.210667 12.017778
759   2 0.0000  2.403556  7.210667 16.824890
760   2 0.0000  2.403556  7.210667 21.632001
761   2 0.0000  2.403556 12.017778  2.403556
762   2 0.0000  2.403556 12.017778  7.210667
763   2 0.0000  2.403556 12.017778 12.017778
764   2 0.0000  2.403556 12.017778 16.824890
765   2 0.0000  2.403556 12.017778 21.632001
766   2 0.0000  2.403556 16.824890  2.403556
767   2 0.0000  2.403556 16.824890  7.210667
768   2 0.0000  2.403556 16.824890 12.017778
769   2 0.0000  2.403556 16.824890 16.824890
770   2 0.0000  2.403556 16.824890 21.632001
771   2 0.0000  2.403556 21.632001  2.403556
772   2 0.0000  2.403556 21.632001  7.210667
773   2 0.0000  2.403556 21.632001 12.017778
774   2 0.0000  2.403556 21.632001 16.824890
775   2 0.0000  2.403556 21.632001 21.632001
776   2 0.0000  7.210667  2.403556  2.403556
777   2 0.0000  7.210667  2.403556  7.210667
778   2 0.0000  7.210667  2.403556 12.017778
779   2 0.0000  7.210667  2.403556 16.824890
780   2 0.0000  7.210667  2.403556 21.632001
781   2 0.0000  7.210667  7.210667  2.403556
782   2 0.0000  7.210667  7.210667  7.210667
783   2 0.0000  7.210667  7.210667 12.017778
784   2 0.0000  7.210667  7.210667 16.824890
785   2 0.0000  7.210667  7.210667 21.632001
786   2 0.0000  7.210667 12.017778  2.403556
787   2 0.0000  7.210667 12.017778  7.210667
788   2 0.0000  7.210667 12.017778 12.017778
789   2 0.0000  7.210667 12.017778 16.824890
790   2 0.0000  7.210667 12.017778 21.632001
791   2 0.0000  7.210667 16.824890  2.403556
792   2 0.0000  7.210667 16.824890  7.210667
793   2 0.0000  7.210667 16.824890 12.017778
794   2 0.0000  7.210667 16.824890 16.824890
795   2 0.0000  7.210667 16.824890 21.632001
796   2 0.0000  7.210667 21.632001  2.403556
797   2 0.0000  7.210667 21.632001  7.210667
798   2 0.0000  7.210667 21.632001 12.017778
799   2 0.0000  7.210667 21.632001 16.824890
800   2 0.0000  7.210667 21.632001 21.632001
801   2 0.0000 12.017778  2.403556  2.403556
802   2 0.0000 12.017778  2.403556  7.210667
803   2 0.0000 12.017778  2.403556 12.017778
804   2 0.0000 12.017778  2.403556 16.824890
805   2 0.0000 12.017778  2.403556 21.632001
806   2 0.0000 12.017778  7.210667  2.403556
807   2 0.0000 12.017778  7.210667  7.210667
808   2 0.0000 12.017778  7.210667 12.017778
809   2 0.0000 12.017778  7.210667 16.824890
810   2 0.0000 12.017778  7.210667 21.632001
811   2 0.0000 12.017778 12.017778  2.403556
812   2 0.0000 12.017778 12.017778  7.210667
813   2 0.0000 12.017778 12.017778 12.017778
814   2 0.0000 12.017778 12.017778 16.824890
815   2 0.0000 12.017778 12.017778 21.632001
816   2 0.0000 12.017778 16.824890  2.403556
817   2 0.0000 12.017778 16.824890  7.210667
818   2 0.0000 12.017778 16.824890 12.017778
819   2 0.0000 12.017778 16.824890 16.824890
820   2 0.0000 12.017778 16.824890 21.632001
821   2 0.0000 12.017778 21.632001  2.403556
822   2 0.0000 12.017778 21.632001  7.210667
823   2 0.0000 12.017778 21.632001 12.017778
824   2 0.0000 12.017778 21.632001 16.824890
825   2 0.0000 12.017778 21.632001 21.632001
826   2 0.0000 16.824890  2.403556  2.403556
827   2 0.0000 16.824890  2.403556  7.210667
828   2 0.0000 16.824890  2.403556 12.017778
829   2 0.0000 16.824890  2.403556 16.824890
830   2 0.0000 16.824890  2.403556 21.632001
831   2 0.0000 16.824890  7.210667  2.403556
832   2 0.0000 16.824890  7.210667  7.210667
833   2 0.0000 16.824890  7.210667 12.017778
834   2 0.0000 16.824890  7.210667 16.824890
835   2 0.0000 16.824890  7.210667 21.632001
836   2 0.0000 16.824890 12.017778  2.403556
837   2 0.0000 16.824890 12.017778  7.210667
838   2 0.0000 16.824890 12.017778 12.017778
839   2 0.0000 16.824890 12.017778 16.824890
840   2 0.0000 16.824890 12.017778 21.632001
841   2 0.0000 16.824890 16.824890  2.403556
842   2 0.0000 16.824890 16.824890  7.210667
843   2 0.0000 16.824890 16.824890 12.017778
844   2 0.0000 16.824890 16.824890 16.824890
845   2 0.0000 16.824890 16.824890 21.632001
846   2 0.0000 16.824890 21.632001  2.403556
847   2 0.0000 16.824890 21.632001  7.210667
848   2 0.0000 16.824890 21.632001 12.017778
849   2 0.0000 16.824890 21.632001 16.824890
850   2 0.0000 16.824890 21.632001 21.632001
851   2 0.0000 21.632001  2.403556  2.403556
852   2 0.0000 21.632001  2.403556  7.210667
853   2 0.0000 21.632001  2.403556 12.017778
854   2 0.0000 21.632001  2.403556 16.824890
855   2 0.0000 21.632001  2.403556 21.632001
856   2 0.0000 21.632001  7.210667  2.403556
857   2 0.0000 21.632001  7.210667  7.210667
858   2 0.0000 21.632001  7.210667 12.017778
859   2 0.0000 21.632001  7.210667 16.824890
860   2 0.0000 21.632001  7.210667 21.632001
861   2 0.0000 21.632001 12.017778  2.403556
862   2 0.0000 21.632001 12.017778  7.210667
863   2 0.0000 21.632001 12.017778 12.017778
864   2 0.0000 21.632001 12.017778 16.824890
865   2 0.0000 21.632001 12.017778 21.632001
866   2 0.0000 21.632001 16.824890  2.403556
867   2 0.0000 21.632001 16.824890  7.210667
868   2 0.0000 21.632001 16.824890 12.017778
869   2 0.0000 21.632001 16.824890 16.824890
870   2 0.0000 21.632001 16.824890 21.632001
871   2 0.0000 21.632001 21.632001  2.403556
872   2 0.0000 21.632001 21.632001  7.210667
873   2 0.0000 21.632001 21.632001 12.017778
874   2 0.0000 21.632001 21.632001 16.824890
875   2 0.0000 21.632001 21.632001 21.632001
876   2 0.0000  2.403556 -0.000000  0.000000
877   2 0.0000  2.403556  0.000000  4.807111
878   2 0.0000  2.403556  0.000000  9.614223
879   2 0.0000  2.403556  0.000000 14.421334
880   2 0.0000  2.403556  0.000000 19.228446
881   2 0.0000  2.403556  4.807111 -0.000000
882   2 0.0000  2.403556  4.807111  4.807111
883   2 0.0000  2.403556  4.807111  9.614223
884   2 0.0000  2.403556  4.807111 14.421334
885   2 0.0000  2.403556  4.807111 19.228446
886   2 0.0000  2.403556  9.614223 -0.000000
887   2 0.0000  2.403556  9.614223  4.807111
888   2 0.0000  2.403556  9.614223  9.614223
889   2 0.0000  2.403556  9.614223 14.421334
890   2 0.0000  2.403556  9.614223 19.228446
891   2 0.0000  2.403556 14.421334  0.000000
892   2 0.0000  2.403556 14.421334  4.807111
893   2 0.0000  2.403556 14.421334  9.614223
894   2 0.0000  2.403556 14.421334 14.421334
895   2 0.0000  2.403556 14.421334 19.228446
896   2 0.0000  2.403556 19.228446 -0.000000
897   2 0.0000  2.403556 19.228446  4.807111
898   2 0.0000  2.403556 19.228446  9.614223
899   2 0.0000  2.403556 19.228446 14.421334
900   2 0.0000  2.403556 19.228446 19.228446
901   2 0.0000  7.210667 -0.000000  0.000000
902   2 0.0000  7.210667  0.000000  4.807111
903   2 0.0000  7.210667  0.000000  9.614223
904   2 0.0000  7.210667  0.000000 14.421334
905   2 0.0000  7.210667  0.000000 19.228446
906   2 0.0000  7.210667  4.807111  0.000000
907   2 0.0000  7.210667  4.807111  4.807111
908   2 0.0000  7.210667  4.807111  9.614223
909   2 0.0000  7.210667  4.807111 14.421334
910   2 0.0000  7.210667  4.807111 19.228446
911   2 0.0000  7.210667  9.614223 -0.000000
912   2 0.0000  7.210667  9.614223  4.807111
913   2 0.0000  7.210667  9.614223  9.614223
914   2 0.0000  7.210667  9.614223 14.421334
915   2 0.0000  7.210667  9.614223 19.228446
916   2 0.0000  7.210667 14.421334 -0.000000
917   2 0.0000  7.210667 14.421334  4.807111
918   2 0.0000  7.210667 14.421334  9.614223
919   2 0.0000  7.210667 14.421334 14.421334
920   2 0.0000  7.210667 14.421334 19.228446
921   2 0.0000  7.210667 19.228446 -0.000000
922   2 0.0000  7.210667 19.228446  4.807111
923   2 0.0000  7.210667 19.228446  9.614223
924   2 0.0000  7.210667 19.228446 14.421334
925   2 0.0000  7.210667 19.228446 19.228446
926   2 0.0000 12.017778 -0.000000  0.000000
927   2 0.0000 12.017778  0.000000  4.807111
928   2 0.0000 12.017778  0.000000  9.614223
929   2 0.0000 12.017778  0.000000 14.421334
930   2 0.0000 12.017778  0.000000 19.228446
931   2 0.0000 12.017778  4.807111  0.000000
932   2 0.0000 12.017778  4.807111  4.807111
933   2 0.0000 12.017778  4.807111  9.614223
934   2 0.0000 12.017778  4.807111 14.421334
935   2 0.0000 12.017778  4.807111 19.228446
936   2 0.0000 12.017778  9.614223 -0.000000
937   2 0.0000 12.017778  9.614223  4.807111
938   2 0.0000 12.017778  9.614223  9.614223
939   2 0.0000 12.017778  9.614223 14.421334
940   2 0.0000 12.017778  9.614223 19.228446
941   2 0.0000 12.017778 14.421334 -0.000000
942   2 0.0000 12.017778 14.421334  4.807111
943   2 0.0000 12.017778 14.421334  9.614223
944   2 0.0000 12.017778 14.421334 14.421334
945   2 0.0000 12.017778 14.421334 19.228446
946   2 0.0000 12.017778 19.228446  0.000000
947   2 0.0000 12.017778 19.228446  4.807111
948   2 0.0000 12.017778 19.228446  9.614223
949   2 0.0000 12.017778 19.228446 14.421334
950   2 0.0000 12.017778 19.228446 19.228446
951   2 0.0000 16.824890 -0.000000  0.000000
952   2 0.0000 16.824890  0.000000  4.807111
953   2 0.0000 16.824890  0.000000  9.614223
954   2 0.0000 16.824890  0.000000 14.421334
955   2 0.0000 16.824890  0.000000 19.228446
956   2 0.0000 16.824890  4.807111  0.000000
957   2 0.0000 16.824890  4.807111  4.807111
958   2 0.0000 16.824890  4.807111  9.614223
959   2 0.0000 16.824890  4.807111 14.421334
960   2 0.0000 16.824890  4.807111 19.228446
961   2 0.0000 16.824890  9.614223  0.000000
962   2 0.0000 16.824890  9.614223  4.807111
963   2 0.0000 16.824890  9.614223  9.614223
964   2 0.0000 16.824890  9.614223 14.421334
965   2 0.0000 16.824890  9.614223 19.228446
966   2 0.0000 16.824890 14.421334  0.000000
967   2 0.0000 16.824890 14.421334  4.807111
968   2 0.0000 16.824890 14.421334  9.614223
969   2 0.0000 16.824890 14.421334 14.421334
970   2 0.0000 16.824890 14.421334 19.228446
971   2 0.0000 16.824890 19.228446  0.000000
972   2 0.0000 16.824890 19.228446  4.807111
973   2 0.0000 16.824890 19.228446  9.614223
974   2 0.0000 16.824890 19.228446 14.421334
975   2 0.0000 16.824890 19.228446 19.228446
976   2 0.0000 21.632001 -0.000000 -0.000000
977   2 0.0000 21.632001  0.000000  4.807111
978   2 0.0000 21.632001  0.000000  9.614223
979   2 0.0000 21.632001  0.000000 14.421334
980   2 0.0000 21.632001  0.000000 19.228446
981   2 0.0000 21.632001  4.807111 -0.000000
982   2 0.0000 21.632001  4.807111  4.807111
983   2 0.0000 21.632001  4.807111  9.614223
984   2 0.0000 21.632001  4.807111 14.421334
985   2 0.0000 21.632001  4.807111 19.228446
986   2 0.0000 21.632001  9.614223  0.000000
987   2 0.0000 21.632001  9.614223  4.807111
988   2 0.0000 21.632001  9.614223  9.614223
989   2 0.0000 21.632001  9.614223 14.421334
990   2 0.0000 21.632001  9.614223 19.228446
991   2 0.0000 21.632001 14.421334 -0.000000
992   2 0.0000 21.632001 14.421334  4.807111
993   2 0.0000 21.632001 14.421334  9.614223
994   2 0.0000 21.632001 14.421334 14.421334
995   2 0.0000 21.632001 14.421334 19.228446
996   2 0.0000 21.632001 19.228446  0.000000
997   2 0.0000 21.632001 19.228446  4.807111
998   2 0.0000 21.632001 19.228446  9.614223
999   2 0.0000 21.632001 19.228446 14.421334
1000  2 0.0000 21.632001 19.228446 19.228446

