Generated by pymatgen.io.lammps.data.LammpsData

1000  atoms

   2  atom types

0.000000 28.523743  xlo xhi
0.000000 28.523743  ylo yhi
0.000000 28.523743  zlo zhi

Masses

1  40.078
2  32.065

Atoms

1     1 0.0000  0.000000  0.000000  0.000000
2     1 0.0000  0.000000  0.000000  5.704749
3     1 0.0000  0.000000  0.000000 11.409497
4     1 0.0000  0.000000  0.000000 17.114246
5     1 0.0000  0.000000  0.000000 22.818994
6     1 0.0000  0.000000  5.704749  0.000000
7     1 0.0000  0.000000  5.704749  5.704749
8     1 0.0000  0.000000  5.704749 11.409497
9     1 0.0000  0.000000  5.704749 17.114246
10    1 0.0000  0.000000  5.704749 22.818994
11    1 0.0000  0.000000 11.409497  0.000000
12    1 0.0000  0.000000 11.409497  5.704749
13    1 0.0000  0.000000 11.409497 11.409497
14    1 0.0000  0.000000 11.409497 17.114246
15    1 0.0000  0.000000 11.409497 22.818994
16    1 0.0000  0.000000 17.114246  0.000000
17    1 0.0000  0.000000 17.114246  5.704749
18    1 0.0000  0.000000 17.114246 11.409497
19    1 0.0000  0.000000 17.114246 17.114246
20    1 0.0000  0.000000 17.114246 22.818994
21    1 0.0000  0.000000 22.818994  0.000000
22    1 0.0000  0.000000 22.818994  5.704749
23    1 0.0000  0.000000 22.818994 11.409497
24    1 0.0000  0.000000 22.818994 17.114246
25    1 0.0000  0.000000 22.818994 22.818994
26    1 0.0000  5.704749 -0.000000  0.000000
27    1 0.0000  5.704749  0.000000  5.704749
28    1 0.0000  5.704749  0.000000 11.409497
29    1 0.0000  5.704749  0.000000 17.114246
30    1 0.0000  5.704749  0.000000 22.818994
31    1 0.0000  5.704749  5.704749  0.000000
32    1 0.0000  5.704749  5.704749  5.704749
33    1 0.0000  5.704749  5.704749 11.409497
34    1 0.0000  5.704749  5.704749 17.114246
35    1 0.0000  5.704749  5.704749 22.818994
36    1 0.0000  5.704749 11.409497  0.000000
37    1 0.0000  5.704749 11.409497  5.704749
38    1 0.0000  5.704749 11.409497 11.409497
39    1 0.0000  5.704749 11.409497 17.114246
40    1 0.0000  5.704749 11.409497 22.818994
41    1 0.0000  5.704749 17.114246  0.000000
42    1 0.0000  5.704749 17.114246  5.704749
43    1 0.0000  5.704749 17.114246 11.409497
44    1 0.0000  5.704749 17.114246 17.114246
45    1 0.0000  5.704749 17.114246 22.818994
46    1 0.0000  5.704749 22.818994  0.000000
47    1 0.0000  5.704749 22.818994  5.704749
48    1 0.0000  5.704749 22.818994 11.409497
49    1 0.0000  5.704749 22.818994 17.114246
50    1 0.0000  5.704749 22.818994 22.818994
51    1 0.0000 11.409497 -0.000000  0.000000
52    1 0.0000 11.409497  0.000000  5.704749
53    1 0.0000 11.409497  0.000000 11.409497
54    1 0.0000 11.409497  0.000000 17.114246
55    1 0.0000 11.409497  0.000000 22.818994
56    1 0.0000 11.409497  5.704749  0.000000
57    1 0.0000 11.409497  5.704749  5.704749
58    1 0.0000 11.409497  5.704749 11.409497
59    1 0.0000 11.409497  5.704749 17.114246
60    1 0.0000 11.409497  5.704749 22.818994
61    1 0.0000 11.409497 11.409497  0.000000
62    1 0.0000 11.409497 11.409497  5.704749
63    1 0.0000 11.409497 11.409497 11.409497
64    1 0.0000 11.409497 11.409497 17.114246
65    1 0.0000 11.409497 11.409497 22.818994
66    1 0.0000 11.409497 17.114246  0.000000
67    1 0.0000 11.409497 17.114246  5.704749
68    1 0.0000 11.409497 17.114246 11.409497
69    1 0.0000 11.409497 17.114246 17.114246
70    1 0.0000 11.409497 17.114246 22.818994
71    1 0.0000 11.409497 22.818994  0.000000
72    1 0.0000 11.409497 22.818994  5.704749
73    1 0.0000 11.409497 22.818994 11.409497
74    1 0.0000 11.409497 22.818994 17.114246
75    1 0.0000 11.409497 22.818994 22.818994
76    1 0.0000 17.114246 -0.000000  0.000000
77    1 0.0000 17.114246  0.000000  5.704749
78    1 0.0000 17.114246  0.000000 11.409497
79    1 0.0000 17.114246  0.000000 17.114246
80    1 0.0000 17.114246  0.000000 22.818994
81    1 0.0000 17.114246  5.704749  0.000000
82    1 0.0000 17.114246  5.704749  5.704749
83    1 0.0000 17.114246  5.704749 11.409497
84    1 0.0000 17.114246  5.704749 17.114246
85    1 0.0000 17.114246  5.704749 22.818994
86    1 0.0000 17.114246 11.409497  0.000000
87    1 0.0000 17.114246 11.409497  5.704749
88    1 0.0000 17.114246 11.409497 11.409497
89    1 0.0000 17.114246 11.409497 17.114246
90    1 0.0000 17.114246 11.409497 22.818994
91    1 0.0000 17.114246 17.114246  0.000000
92    1 0.0000 17.114246 17.114246  5.704749
93    1 0.0000 17.114246 17.114246 11.409497
94    1 0.0000 17.114246 17.114246 17.114246
95    1 0.0000 17.114246 17.114246 22.818994
96    1 0.0000 17.114246 22.818994  0.000000
97    1 0.0000 17.114246 22.818994  5.704749
98    1 0.0000 17.114246 22.818994 11.409497
99    1 0.0000 17.114246 22.818994 17.114246
100   1 0.0000 17.114246 22.818994 22.818994
101   1 0.0000 22.818994 -0.000000  0.000000
102   1 0.0000 22.818994  0.000000  5.704749
103   1 0.0000 22.818994  0.000000 11.409497
104   1 0.0000 22.818994  0.000000 17.114246
105   1 0.0000 22.818994  0.000000 22.818994
106   1 0.0000 22.818994  5.704749  0.000000
107   1 0.0000 22.818994  5.704749  5.704749
108   1 0.0000 22.818994  5.704749 11.409497
109   1 0.0000 22.818994  5.704749 17.114246
110   1 0.0000 22.818994  5.704749 22.818994
111   1 0.0000 22.818994 11.409497  0.000000
112   1 0.0000 22.818994 11.409497  5.704749
113   1 0.0000 22.818994 11.409497 11.409497
114   1 0.0000 22.818994 11.409497 17.114246
115   1 0.0000 22.818994 11.409497 22.818994
116   1 0.0000 22.818994 17.114246  0.000000
117   1 0.0000 22.818994 17.114246  5.704749
118   1 0.0000 22.818994 17.114246 11.409497
119   1 0.0000 22.818994 17.114246 17.114246
120   1 0.0000 22.818994 17.114246 22.818994
121   1 0.0000 22.818994 22.818994  0.000000
122   1 0.0000 22.818994 22.818994  5.704749
123   1 0.0000 22.818994 22.818994 11.409497
124   1 0.0000 22.818994 22.818994 17.114246
125   1 0.0000 22.818994 22.818994 22.818994
126   1 0.0000  0.000000  2.852374  2.852374
127   1 0.0000  0.000000  2.852374  8.557123
128   1 0.0000  0.000000  2.852374 14.261871
129   1 0.0000  0.000000  2.852374 19.966620
130   1 0.0000  0.000000  2.852374 25.671369
131   1 0.0000  0.000000  8.557123  2.852374
132   1 0.0000  0.000000  8.557123  8.557123
133   1 0.0000  0.000000  8.557123 14.261871
134   1 0.0000  0.000000  8.557123 19.966620
135   1 0.0000  0.000000  8.557123 25.671369
136   1 0.0000  0.000000 14.261871  2.852374
137   1 0.0000  0.000000 14.261871  8.557123
138   1 0.0000  0.000000 14.261871 14.261871
139   1 0.0000  0.000000 14.261871 19.966620
140   1 0.0000  0.000000 14.261871 25.671369
141   1 0.0000  0.000000 19.966620  2.852374
142   1 0.0000  0.000000 19.966620  8.557123
143   1 0.0000  0.000000 19.966620 14.261871
144   1 0.0000  0.000000 19.966620 19.966620
145   1 0.0000  0.000000 19.966620 25.671369
146   1 0.0000  0.000000 25.671369  2.852374
147   1 0.0000  0.000000 25.671369  8.557123
148   1 0.0000  0.000000 25.671369 14.261871
149   1 0.0000  0.000000 25.671369 19.966620
150   1 0.0000  0.000000 25.671369 25.671369
151   1 0.0000  5.704749  2.852374  2.852374
152   1 0.0000  5.704749  2.852374  8.557123
153   1 0.0000  5.704749  2.852374 14.261871
154   1 0.0000  5.704749  2.852374 19.966620
155   1 0.0000  5.704749  2.852374 25.671369
156   1 0.0000  5.704749  8.557123  2.852374
157   1 0.0000  5.704749  8.557123  8.557123
158   1 0.0000  5.704749  8.557123 14.261871
159   1 0.0000  5.704749  8.557123 19.966620
160   1 0.0000  5.704749  8.557123 25.671369
161   1 0.0000  5.704749 14.261871  2.852374
162   1 0.0000  5.704749 14.261871  8.557123
163   1 0.0000  5.704749 14.261871 14.261871
164   1 0.0000  5.704749 14.261871 19.966620
165   1 0.0000  5.704749 14.261871 25.671369
166   1 0.0000  5.704749 19.966620  2.852374
167   1 0.0000  5.704749 19.966620  8.557123
168   1 0.0000  5.704749 19.966620 14.261871
169   1 0.0000  5.704749 19.966620 19.966620
170   1 0.0000  5.704749 19.966620 25.671369
171   1 0.0000  5.704749 25.671369  2.852374
172   1 0.0000  5.704749 25.671369  8.557123
173   1 0.0000  5.704749 25.671369 14.261871
174   1 0.0000  5.704749 25.671369 19.966620
175   1 0.0000  5.704749 25.671369 25.671369
176   1 0.0000 11.409497  2.852374  2.852374
177   1 0.0000 11.409497  2.852374  8.557123
178   1 0.0000 11.409497  2.852374 14.261871
179   1 0.0000 11.409497  2.852374 19.966620
180   1 0.0000 11.409497  2.852374 25.671369
181   1 0.0000 11.409497  8.557123  2.852374
182   1 0.0000 11.409497  8.557123  8.557123
183   1 0.0000 11.409497  8.557123 14.261871
184   1 0.0000 11.409497  8.557123 19.966620
185   1 0.0000 11.409497  8.557123 25.671369
186   1 0.0000 11.409497 14.261871  2.852374
187   1 0.0000 11.409497 14.261871  8.557123
188   1 0.0000 11.409497 14.261871 14.261871
189   1 0.0000 11.409497 14.261871 19.966620
190   1 0.0000 11.409497 14.261871 25.671369
191   1 0.0000 11.409497 19.966620  2.852374
192   1 0.0000 11.409497 19.966620  8.557123
193   1 0.0000 11.409497 19.966620 14.261871
194   1 0.0000 11.409497 19.966620 19.966620
195   1 0.0000 11.409497 19.966620 25.671369
196   1 0.0000 11.409497 25.671369  2.852374
197   1 0.0000 11.409497 25.671369  8.557123
198   1 0.0000 11.409497 25.671369 14.261871
199   1 0.0000 11.409497 25.671369 19.966620
200   1 0.0000 11.409497 25.671369 25.671369
201   1 0.0000 17.114246  2.852374  2.852374
202   1 0.0000 17.114246  2.852374  8.557123
203   1 0.0000 17.114246  2.852374 14.261871
204   1 0.0000 17.114246  2.852374 19.966620
205   1 0.0000 17.114246  2.852374 25.671369
206   1 0.0000 17.114246  8.557123  2.852374
207   1 0.0000 17.114246  8.557123  8.557123
208   1 0.0000 17.114246  8.557123 14.261871
209   1 0.0000 17.114246  8.557123 19.966620
210   1 0.0000 17.114246  8.557123 25.671369
211   1 0.0000 17.114246 14.261871  2.852374
212   1 0.0000 17.114246 14.261871  8.557123
213   1 0.0000 17.114246 14.261871 14.261871
214   1 0.0000 17.114246 14.261871 19.966620
215   1 0.0000 17.114246 14.261871 25.671369
216   1 0.0000 17.114246 19.966620  2.852374
217   1 0.0000 17.114246 19.966620  8.557123
218   1 0.0000 17.114246 19.966620 14.261871
219   1 0.0000 17.114246 19.966620 19.966620
220   1 0.0000 17.114246 19.966620 25.671369
221   1 0.0000 17.114246 25.671369  2.852374
222   1 0.0000 17.114246 25.671369  8.557123
223   1 0.0000 17.114246 25.671369 14.261871
224   1 0.0000 17.114246 25.671369 19.966620
225   1 0.0000 17.114246 25.671369 25.671369
226   1 0.0000 22.818994  2.852374  2.852374
227   1 0.0000 22.818994  2.852374  8.557123
228   1 0.0000 22.818994  2.852374 14.261871
229   1 0.0000 22.818994  2.852374 19.966620
230   1 0.0000 22.818994  2.852374 25.671369
231   1 0.0000 22.818994  8.557123  2.852374
232   1 0.0000 22.818994  8.557123  8.557123
233   1 0.0000 22.818994  8.557123 14.261871
234   1 0.0000 22.818994  8.557123 19.966620
235   1 0.0000 22.818994  8.557123 25.671369
236   1 0.0000 22.818994 14.261871  2.852374
237   1 0.0000 22.818994 14.261871  8.557123
238   1 0.0000 22.818994 14.261871 14.261871
239   1 0.0000 22.818994 14.261871 19.966620
240   1 0.0000 22.818994 14.261871 25.671369
241   1 0.0000 22.818994 19.966620  2.852374
242   1 0.0000 22.818994 19.966620  8.557123
243   1 0.0000 22.818994 19.966620 14.261871
244   1 0.0000 22.818994 19.966620 19.966620
245   1 0.0000 22.818994 19.966620 25.671369
246   1 0.0000 22.818994 25.671369  2.852374
247   1 0.0000 22.818994 25.671369  8.557123
248   1 0.0000 22.818994 25.671369 14.261871
249   1 0.0000 22.818994 25.671369 19.966620
250   1 0.0000 22.818994 25.671369 25.671369
251   1 0.0000  2.852374  0.000000  2.852374
252   1 0.0000  2.852374  0.000000  8.557123
253   1 0.0000  2.852374  0.000000 14.261871
254   1 0.0000  2.852374  0.000000 19.966620
255   1 0.0000  2.852374  0.000000 25.671369
256   1 0.0000  2.852374  5.704749  2.852374
257   1 0.0000  2.852374  5.704749  8.557123
258   1 0.0000  2.852374  5.704749 14.261871
259   1 0.0000  2.852374  5.704749 19.966620
260   1 0.0000  2.852374  5.704749 25.671369
261   1 0.0000  2.852374 11.409497  2.852374
262   1 0.0000  2.852374 11.409497  8.557123
263   1 0.0000  2.852374 11.409497 14.261871
264   1 0.0000  2.852374 11.409497 19.966620
265   1 0.0000  2.852374 11.409497 25.671369
266   1 0.0000  2.852374 17.114246  2.852374
267   1 0.0000  2.852374 17.114246  8.557123
268   1 0.0000  2.852374 17.114246 14.261871
269   1 0.0000  2.852374 17.114246 19.966620
270   1 0.0000  2.852374 17.114246 25.671369
271   1 0.0000  2.852374 22.818994  2.852374
272   1 0.0000  2.852374 22.818994  8.557123
273   1 0.0000  2.852374 22.818994 14.261871
274   1 0.0000  2.852374 22.818994 19.966620
275   1 0.0000  2.852374 22.818994 25.671369
276   1 0.0000  8.557123  0.000000  2.852374
277   1 0.0000  8.557123  0.000000  8.557123
278   1 0.0000  8.557123  0.000000 14.261871
279   1 0.0000  8.557123  0.000000 19.966620
280   1 0.0000  8.557123  0.000000 25.671369
281   1 0.0000  8.557123  5.704749  2.852374
282   1 0.0000  8.557123  5.704749  8.557123
283   1 0.0000  8.557123  5.704749 14.261871
284   1 0.0000  8.557123  5.704749 19.966620
285   1 0.0000  8.557123  5.704749 25.671369
286   1 0.0000  8.557123 11.409497  2.852374
287   1 0.0000  8.557123 11.409497  8.557123
288   1 0.0000  8.557123 11.409497 14.261871
289   1 0.0000  8.557123 11.409497 19.966620
290   1 0.0000  8.557123 11.409497 25.671369
291   1 0.0000  8.557123 17.114246  2.852374
292   1 0.0000  8.557123 17.114246  8.557123
293   1 0.0000  8.557123 17.114246 14.261871
294   1 0.0000  8.557123 17.114246 19.966620
295   1 0.0000  8.557123 17.114246 25.671369
296   1 0.0000  8.557123 22.818994  2.852374
297   1 0.0000  8.557123 22.818994  8.557123
298   1 0.0000  8.557123 22.818994 14.261871
299   1 0.0000  8.557123 22.818994 19.966620
300   1 0.0000  8.557123 22.818994 25.671369
301   1 0.0000 14.261871  0.000000  2.852374
302   1 0.0000 14.261871  0.000000  8.557123
303   1 0.0000 14.261871  0.000000 14.261871
304   1 0.0000 14.261871  0.000000 19.966620
305   1 0.0000 14.261871  0.000000 25.671369
306   1 0.0000 14.261871  5.704749  2.852374
307   1 0.0000 14.261871  5.704749  8.557123
308   1 0.0000 14.261871  5.704749 14.261871
309   1 0.0000 14.261871  5.704749 19.966620
310   1 0.0000 14.261871  5.704749 25.671369
311   1 0.0000 14.261871 11.409497  2.852374
312   1 0.0000 14.261871 11.409497  8.557123
313   1 0.0000 14.261871 11.409497 14.261871
314   1 0.0000 14.261871 11.409497 19.966620
315   1 0.0000 14.261871 11.409497 25.671369
316   1 0.0000 14.261871 17.114246  2.852374
317   1 0.0000 14.261871 17.114246  8.557123
318   1 0.0000 14.261871 17.114246 14.261871
319   1 0.0000 14.261871 17.114246 19.966620
320   1 0.0000 14.261871 17.114246 25.671369
321   1 0.0000 14.261871 22.818994  2.852374
322   1 0.0000 14.261871 22.818994  8.557123
323   1 0.0000 14.261871 22.818994 14.261871
324   1 0.0000 14.261871 22.818994 19.966620
325   1 0.0000 14.261871 22.818994 25.671369
326   1 0.0000 19.966620  0.000000  2.852374
327   1 0.0000 19.966620  0.000000  8.557123
328   1 0.0000 19.966620  0.000000 14.261871
329   1 0.0000 19.966620  0.000000 19.966620
330   1 0.0000 19.966620  0.000000 25.671369
331   1 0.0000 19.966620  5.704749  2.852374
332   1 0.0000 19.966620  5.704749  8.557123
333   1 0.0000 19.966620  5.704749 14.261871
334   1 0.0000 19.966620  5.704749 19.966620
335   1 0.0000 19.966620  5.704749 25.671369
336   1 0.0000 19.966620 11.409497  2.852374
337   1 0.0000 19.966620 11.409497  8.557123
338   1 0.0000 19.966620 11.409497 14.261871
339   1 0.0000 19.966620 11.409497 19.966620
340   1 0.0000 19.966620 11.409497 25.671369
341   1 0.0000 19.966620 17.114246  2.852374
342   1 0.0000 19.966620 17.114246  8.557123
343   1 0.0000 19.966620 17.114246 14.261871
344   1 0.0000 19.966620 17.114246 19.966620
345   1 0.0000 19.966620 17.114246 25.671369
346   1 0.0000 19.966620 22.818994  2.852374
347   1 0.0000 19.966620 22.818994  8.557123
348   1 0.0000 19.966620 22.818994 14.261871
349   1 0.0000 19.966620 22.818994 19.966620
350   1 0.0000 19.966620 22.818994 25.671369
351   1 0.0000 25.671369  0.000000  2.852374
352   1 0.0000 25.671369  0.000000  8.557123
353   1 0.0000 25.671369  0.000000 14.261871
354   1 0.0000 25.671369  0.000000 19.966620
355   1 0.0000 25.671369  0.000000 25.671369
356   1 0.0000 25.671369  5.704749  2.852374
357   1 0.0000 25.671369  5.704749  8.557123
358   1 0.0000 25.671369  5.704749 14.261871
359   1 0.0000 25.671369  5.704749 19.966620
360   1 0.0000 25.671369  5.704749 25.671369
361   1 0.0000 25.671369 11.409497  2.852374
362   1 0.0000 25.671369 11.409497  8.557123
363   1 0.0000 25.671369 11.409497 14.261871
364   1 0.0000 25.671369 11.409497 19.966620
365   1 0.0000 25.671369 11.409497 25.671369
366   1 0.0000 25.671369 17.114246  2.852374
367   1 0.0000 25.671369 17.114246  8.557123
368   1 0.0000 25.671369 17.114246 14.261871
369   1 0.0000 25.671369 17.114246 19.966620
370   1 0.0000 25.671369 17.114246 25.671369
371   1 0.0000 25.671369 22.818994  2.852374
372   1 0.0000 25.671369 22.818994  8.557123
373   1 0.0000 25.671369 22.818994 14.261871
374   1 0.0000 25.671369 22.818994 19.966620
375   1 0.0000 25.671369 22.818994 25.671369
376   1 0.0000  2.852374  2.852374  0.000000
377   1 0.0000  2.852374  2.852374  5.704749
378   1 0.0000  2.852374  2.852374 11.409497
379   1 0.0000  2.852374  2.852374 17.114246
380   1 0.0000  2.852374  2.852374 22.818994
381   1 0.0000  2.852374  8.557123  0.000000
382   1 0.0000  2.852374  8.557123  5.704749
383   1 0.0000  2.852374  8.557123 11.409497
384   1 0.0000  2.852374  8.557123 17.114246
385   1 0.0000  2.852374  8.557123 22.818994
386   1 0.0000  2.852374 14.261871  0.000000
387   1 0.0000  2.852374 14.261871  5.704749
388   1 0.0000  2.852374 14.261871 11.409497
389   1 0.0000  2.852374 14.261871 17.114246
390   1 0.0000  2.852374 14.261871 22.818994
391   1 0.0000  2.852374 19.966620  0.000000
392   1 0.0000  2.852374 19.966620  5.704749
393   1 0.0000  2.852374 19.966620 11.409497
394   1 0.0000  2.852374 19.966620 17.114246
395   1 0.0000  2.852374 19.966620 22.818994
396   1 0.0000  2.852374 25.671369  0.000000
397   1 0.0000  2.852374 25.671369  5.704749
398   1 0.0000  2.852374 25.671369 11.409497
399   1 0.0000  2.852374 25.671369 17.114246
400   1 0.0000  2.852374 25.671369 22.818994
401   1 0.0000  8.557123  2.852374  0.000000
402   1 0.0000  8.557123  2.852374  5.704749
403   1 0.0000  8.557123  2.852374 11.409497
404   1 0.0000  8.557123  2.852374 17.114246
405   1 0.0000  8.557123  2.852374 22.818994
406   1 0.0000  8.557123  8.557123  0.000000
407   1 0.0000  8.557123  8.557123  5.704749
408   1 0.0000  8.557123  8.557123 11.409497
409   1 0.0000  8.557123  8.557123 17.114246
410   1 0.0000  8.557123  8.557123 22.818994
411   1 0.0000  8.557123 14.261871  0.000000
412   1 0.0000  8.557123 14.261871  5.704749
413   1 0.0000  8.557123 14.261871 11.409497
414   1 0.0000  8.557123 14.261871 17.114246
415   1 0.0000  8.557123 14.261871 22.818994
416   1 0.0000  8.557123 19.966620  0.000000
417   1 0.0000  8.557123 19.966620  5.704749
418   1 0.0000  8.557123 19.966620 11.409497
419   1 0.0000  8.557123 19.966620 17.114246
420   1 0.0000  8.557123 19.966620 22.818994
421   1 0.0000  8.557123 25.671369  0.000000
422   1 0.0000  8.557123 25.671369  5.704749
423   1 0.0000  8.557123 25.671369 11.409497
424   1 0.0000  8.557123 25.671369 17.114246
425   1 0.0000  8.557123 25.671369 22.818994
426   1 0.0000 14.261871  2.852374  0.000000
427   1 0.0000 14.261871  2.852374  5.704749
428   1 0.0000 14.261871  2.852374 11.409497
429   1 0.0000 14.261871  2.852374 17.114246
430   1 0.0000 14.261871  2.852374 22.818994
431   1 0.0000 14.261871  8.557123 -0.000000
432   1 0.0000 14.261871  8.557123  5.704749
433   1 0.0000 14.261871  8.557123 11.409497
434   1 0.0000 14.261871  8.557123 17.114246
435   1 0.0000 14.261871  8.557123 22.818994
436   1 0.0000 14.261871 14.261871  0.000000
437   1 0.0000 14.261871 14.261871  5.704749
438   1 0.0000 14.261871 14.261871 11.409497
439   1 0.0000 14.261871 14.261871 17.114246
440   1 0.0000 14.261871 14.261871 22.818994
441   1 0.0000 14.261871 19.966620  0.000000
442   1 0.0000 14.261871 19.966620  5.704749
443   1 0.0000 14.261871 19.966620 11.409497
444   1 0.0000 14.261871 19.966620 17.114246
445   1 0.0000 14.261871 19.966620 22.818994
446   1 0.0000 14.261871 25.671369  0.000000
447   1 0.0000 14.261871 25.671369  5.704749
448   1 0.0000 14.261871 25.671369 11.409497
449   1 0.0000 14.261871 25.671369 17.114246
450   1 0.0000 14.261871 25.671369 22.818994
451   1 0.0000 19.966620  2.852374  0.000000
452   1 0.0000 19.966620  2.852374  5.704749
453   1 0.0000 19.966620  2.852374 11.409497
454   1 0.0000 19.966620  2.852374 17.114246
455   1 0.0000 19.966620  2.852374 22.818994
456   1 0.0000 19.966620  8.557123  0.000000
457   1 0.0000 19.966620  8.557123  5.704749
458   1 0.0000 19.966620  8.557123 11.409497
459   1 0.0000 19.966620  8.557123 17.114246
460   1 0.0000 19.966620  8.557123 22.818994
461   1 0.0000 19.966620 14.261871  0.000000
462   1 0.0000 19.966620 14.261871  5.704749
463   1 0.0000 19.966620 14.261871 11.409497
464   1 0.0000 19.966620 14.261871 17.114246
465   1 0.0000 19.966620 14.261871 22.818994
466   1 0.0000 19.966620 19.966620  0.000000
467   1 0.0000 19.966620 19.966620  5.704749
468   1 0.0000 19.966620 19.966620 11.409497
469   1 0.0000 19.966620 19.966620 17.114246
470   1 0.0000 19.966620 19.966620 22.818994
471   1 0.0000 19.966620 25.671369  0.000000
472   1 0.0000 19.966620 25.671369  5.704749
473   1 0.0000 19.966620 25.671369 11.409497
474   1 0.0000 19.966620 25.671369 17.114246
475   1 0.0000 19.966620 25.671369 22.818994
476   1 0.0000 25.671369  2.852374 -0.000000
477   1 0.0000 25.671369  2.852374  5.704749
478   1 0.0000 25.671369  2.852374 11.409497
479   1 0.0000 25.671369  2.852374 17.114246
480   1 0.0000 25.671369  2.852374 22.818994
481   1 0.0000 25.671369  8.557123 -0.000000
482   1 0.0000 25.671369  8.557123  5.704749
483   1 0.0000 25.671369  8.557123 11.409497
484   1 0.0000 25.671369  8.557123 17.114246
485   1 0.0000 25.671369  8.557123 22.818994
486   1 0.0000 25.671369 14.261871 -0.000000
487   1 0.0000 25.671369 14.261871  5.704749
488   1 0.0000 25.671369 14.261871 11.409497
489   1 0.0000 25.671369 14.261871 17.114246
490   1 0.0000 25.671369 14.261871 22.818994
491   1 0.0000 25.671369 19.966620  0.000000
492   1 0.0000 25.671369 19.966620  5.704749
493   1 0.0000 25.671369 19.966620 11.409497
494   1 0.0000 25.671369 19.966620 17.114246
495   1 0.0000 25.671369 19.966620 22.818994
496   1 0.0000 25.671369 25.671369 -0.000000
497   1 0.0000 25.671369 25.671369  5.704749
498   1 0.0000 25.671369 25.671369 11.409497
499   1 0.0000 25.671369 25.671369 17.114246
500   1 0.0000 25.671369 25.671369 22.818994
501   2 0.0000  0.000000  0.000000  2.852374
502   2 0.0000  0.000000  0.000000  8.557123
503   2 0.0000  0.000000  0.000000 14.261871
504   2 0.0000  0.000000  0.000000 19.966620
505   2 0.0000  0.000000  0.000000 25.671369
506   2 0.0000  0.000000  5.704749  2.852374
507   2 0.0000  0.000000  5.704749  8.557123
508   2 0.0000  0.000000  5.704749 14.261871
509   2 0.0000  0.000000  5.704749 19.966620
510   2 0.0000  0.000000  5.704749 25.671369
511   2 0.0000  0.000000 11.409497  2.852374
512   2 0.0000  0.000000 11.409497  8.557123
513   2 0.0000  0.000000 11.409497 14.261871
514   2 0.0000  0.000000 11.409497 19.966620
515   2 0.0000  0.000000 11.409497 25.671369
516   2 0.0000  0.000000 17.114246  2.852374
517   2 0.0000  0.000000 17.114246  8.557123
518   2 0.0000  0.000000 17.114246 14.261871
519   2 0.0000  0.000000 17.114246 19.966620
520   2 0.0000  0.000000 17.114246 25.671369
521   2 0.0000  0.000000 22.818994  2.852374
522   2 0.0000  0.000000 22.818994  8.557123
523   2 0.0000  0.000000 22.818994 14.261871
524   2 0.0000  0.000000 22.818994 19.966620
525   2 0.0000  0.000000 22.818994 25.671369
526   2 0.0000  5.704749  0.000000  2.852374
527   2 0.0000  5.704749  0.000000  8.557123
528   2 0.0000  5.704749  0.000000 14.261871
529   2 0.0000  5.704749  0.000000 19.966620
530   2 0.0000  5.704749  0.000000 25.671369
531   2 0.0000  5.704749  5.704749  2.852374
532   2 0.0000  5.704749  5.704749  8.557123
533   2 0.0000  5.704749  5.704749 14.261871
534   2 0.0000  5.704749  5.704749 19.966620
535   2 0.0000  5.704749  5.704749 25.671369
536   2 0.0000  5.704749 11.409497  2.852374
537   2 0.0000  5.704749 11.409497  8.557123
538   2 0.0000  5.704749 11.409497 14.261871
539   2 0.0000  5.704749 11.409497 19.966620
540   2 0.0000  5.704749 11.409497 25.671369
541   2 0.0000  5.704749 17.114246  2.852374
542   2 0.0000  5.704749 17.114246  8.557123
543   2 0.0000  5.704749 17.114246 14.261871
544   2 0.0000  5.704749 17.114246 19.966620
545   2 0.0000  5.704749 17.114246 25.671369
546   2 0.0000  5.704749 22.818994  2.852374
547   2 0.0000  5.704749 22.818994  8.557123
548   2 0.0000  5.704749 22.818994 14.261871
549   2 0.0000  5.704749 22.818994 19.966620
550   2 0.0000  5.704749 22.818994 25.671369
551   2 0.0000 11.409497  0.000000  2.852374
552   2 0.0000 11.409497  0.000000  8.557123
553   2 0.0000 11.409497  0.000000 14.261871
554   2 0.0000 11.409497  0.000000 19.966620
555   2 0.0000 11.409497  0.000000 25.671369
556   2 0.0000 11.409497  5.704749  2.852374
557   2 0.0000 11.409497  5.704749  8.557123
558   2 0.0000 11.409497  5.704749 14.261871
559   2 0.0000 11.409497  5.704749 19.966620
560   2 0.0000 11.409497  5.704749 25.671369
561   2 0.0000 11.409497 11.409497  2.852374
562   2 0.0000 11.409497 11.409497  8.557123
563   2 0.0000 11.409497 11.409497 14.261871
564   2 0.0000 11.409497 11.409497 19.966620
565   2 0.0000 11.409497 11.409497 25.671369
566   2 0.0000 11.409497 17.114246  2.852374
567   2 0.0000 11.409497 17.114246  8.557123
568   2 0.0000 11.409497 17.114246 14.261871
569   2 0.0000 11.409497 17.114246 19.966620
570   2 0.0000 11.409497 17.114246 25.671369
571   2 0.0000 11.409497 22.818994  2.852374
572   2 0.0000 11.409497 22.818994  8.557123
573   2 0.0000 11.409497 22.818994 14.261871
574   2 0.0000 11.409497 22.818994 19.966620
575   2 0.0000 11.409497 22.818994 25.671369
576   2 0.0000 17.114246  0.000000  2.852374
577   2 0.0000 17.114246  0.000000  8.557123
578   2 0.0000 17.114246  0.000000 14.261871
579   2 0.0000 17.114246  0.000000 19.966620
580   2 0.0000 17.114246  0.000000 25.671369
581   2 0.0000 17.114246  5.704749  2.852374
582   2 0.0000 17.114246  5.704749  8.557123
583   2 0.0000 17.114246  5.704749 14.261871
584   2 0.0000 17.114246  5.704749 19.966620
585   2 0.0000 17.114246  5.704749 25.671369
586   2 0.0000 17.114246 11.409497  2.852374
587   2 0.0000 17.114246 11.409497  8.557123
588   2 0.0000 17.114246 11.409497 14.261871
589   2 0.0000 17.114246 11.409497 19.966620
590   2 0.0000 17.114246 11.409497 25.671369
591   2 0.0000 17.114246 17.114246  2.852374
592   2 0.0000 17.114246 17.114246  8.557123
593   2 0.0000 17.114246 17.114246 14.261871
594   2 0.0000 17.114246 17.114246 19.966620
595   2 0.0000 17.114246 17.114246 25.671369
596   2 0.0000 17.114246 22.818994  2.852374
597   2 0.0000 17.114246 22.818994  8.557123
598   2 0.0000 17.114246 22.818994 14.261871
599   2 0.0000 17.114246 22.818994 19.966620
600   2 0.0000 17.114246 22.818994 25.671369
601   2 0.0000 22.818994  0.000000  2.852374
602   2 0.0000 22.818994  0.000000  8.557123
603   2 0.0000 22.818994  0.000000 14.261871
604   2 0.0000 22.818994  0.000000 19.966620
605   2 0.0000 22.818994  0.000000 25.671369
606   2 0.0000 22.818994  5.704749  2.852374
607   2 0.0000 22.818994  5.704749  8.557123
608   2 0.0000 22.818994  5.704749 14.261871
609   2 0.0000 22.818994  5.704749 19.966620
610   2 0.0000 22.818994  5.704749 25.671369
611   2 0.0000 22.818994 11.409497  2.852374
612   2 0.0000 22.818994 11.409497  8.557123
613   2 0.0000 22.818994 11.409497 14.261871
614   2 0.0000 22.818994 11.409497 19.966620
615   2 0.0000 22.818994 11.409497 25.671369
616   2 0.0000 22.818994 17.114246  2.852374
617   2 0.0000 22.818994 17.114246  8.557123
618   2 0.0000 22.818994 17.114246 14.261871
619   2 0.0000 22.818994 17.114246 19.966620
620   2 0.0000 22.818994 17.114246 25.671369
621   2 0.0000 22.818994 22.818994  2.852374
622   2 0.0000 22.818994 22.818994  8.557123
623   2 0.0000 22.818994 22.818994 14.261871
624   2 0.0000 22.818994 22.818994 19.966620
625   2 0.0000 22.818994 22.818994 25.671369
626   2 0.0000  0.000000  2.852374  0.000000
627   2 0.0000  0.000000  2.852374  5.704749
628   2 0.0000  0.000000  2.852374 11.409497
629   2 0.0000  0.000000  2.852374 17.114246
630   2 0.0000  0.000000  2.852374 22.818994
631   2 0.0000  0.000000  8.557123  0.000000
632   2 0.0000  0.000000  8.557123  5.704749
633   2 0.0000  0.000000  8.557123 11.409497
634   2 0.0000  0.000000  8.557123 17.114246
635   2 0.0000  0.000000  8.557123 22.818994
636   2 0.0000  0.000000 14.261871  0.000000
637   2 0.0000  0.000000 14.261871  5.704749
638   2 0.0000  0.000000 14.261871 11.409497
639   2 0.0000  0.000000 14.261871 17.114246
640   2 0.0000  0.000000 14.261871 22.818994
641   2 0.0000  0.000000 19.966620  0.000000
642   2 0.0000  0.000000 19.966620  5.704749
643   2 0.0000  0.000000 19.966620 11.409497
644   2 0.0000  0.000000 19.966620 17.114246
645   2 0.0000  0.000000 19.966620 22.818994
646   2 0.0000  0.000000 25.671369  0.000000
647   2 0.0000  0.000000 25.671369  5.704749
648   2 0.0000  0.000000 25.671369 11.409497
649   2 0.0000  0.000000 25.671369 17.114246
650   2 0.0000  0.000000 25.671369 22.818994
651   2 0.0000  5.704749  2.852374  0.000000
652   2 0.0000  5.704749  2.852374  5.704749
653   2 0.0000  5.704749  2.852374 11.409497
654   2 0.0000  5.704749  2.852374 17.114246
655   2 0.0000  5.704749  2.852374 22.818994
656   2 0.0000  5.704749  8.557123  0.000000
657   2 0.0000  5.704749  8.557123  5.704749
658   2 0.0000  5.704749  8.557123 11.409497
659   2 0.0000  5.704749  8.557123 17.114246
660   2 0.0000  5.704749  8.557123 22.818994
661   2 0.0000  5.704749 14.261871  0.000000
662   2 0.0000  5.704749 14.261871  5.704749
663   2 0.0000  5.704749 14.261871 11.409497
664   2 0.0000  5.704749 14.261871 17.114246
665   2 0.0000  5.704749 14.261871 22.818994
666   2 0.0000  5.704749 19.966620  0.000000
667   2 0.0000  5.704749 19.966620  5.704749
668   2 0.0000  5.704749 19.966620 11.409497
669   2 0.0000  5.704749 19.966620 17.114246
670   2 0.0000  5.704749 19.966620 22.818994
671   2 0.0000  5.704749 25.671369 -0.000000
672   2 0.0000  5.704749 25.671369  5.704749
673   2 0.0000  5.704749 25.671369 11.409497
674   2 0.0000  5.704749 25.671369 17.114246
675   2 0.0000  5.704749 25.671369 22.818994
676   2 0.0000 11.409497  2.852374  0.000000
677   2 0.0000 11.409497  2.852374  5.704749
678   2 0.0000 11.409497  2.852374 11.409497
679   2 0.0000 11.409497  2.852374 17.114246
680   2 0.0000 11.409497  2.852374 22.818994
681   2 0.0000 11.409497  8.557123  0.000000
682   2 0.0000 11.409497  8.557123  5.704749
683   2 0.0000 11.409497  8.557123 11.409497
684   2 0.0000 11.409497  8.557123 17.114246
685   2 0.0000 11.409497  8.557123 22.818994
686   2 0.0000 11.409497 14.261871  0.000000
687   2 0.0000 11.409497 14.261871  5.704749
688   2 0.0000 11.409497 14.261871 11.409497
689   2 0.0000 11.409497 14.261871 17.114246
690   2 0.0000 11.409497 14.261871 22.818994
691   2 0.0000 11.409497 19.966620  0.000000
692   2 0.0000 11.409497 19.966620  5.704749
693   2 0.0000 11.409497 19.966620 11.409497
694   2 0.0000 11.409497 19.966620 17.114246
695   2 0.0000 11.409497 19.966620 22.818994
696   2 0.0000 11.409497 25.671369 -0.000000
697   2 0.0000 11.409497 25.671369  5.704749
698   2 0.0000 11.409497 25.671369 11.409497
699   2 0.0000 11.409497 25.671369 17.114246
700   2 0.0000 11.409497 25.671369 22.818994
701   2 0.0000 17.114246  2.852374  0.000000
702   2 0.0000 17.114246  2.852374  5.704749
703   2 0.0000 17.114246  2.852374 11.409497
704   2 0.0000 17.114246  2.852374 17.114246
705   2 0.0000 17.114246  2.852374 22.818994
706   2 0.0000 17.114246  8.557123  0.000000
707   2 0.0000 17.114246  8.557123  5.704749
708   2 0.0000 17.114246  8.557123 11.409497
709   2 0.0000 17.114246  8.557123 17.114246
710   2 0.0000 17.114246  8.557123 22.818994
711   2 0.0000 17.114246 14.261871 -0.000000
712   2 0.0000 17.114246 14.261871  5.704749
713   2 0.0000 17.114246 14.261871 11.409497
714   2 0.0000 17.114246 14.261871 17.114246
715   2 0.0000 17.114246 14.261871 22.818994
716   2 0.0000 17.114246 19.966620  0.000000
717   2 0.0000 17.114246 19.966620  5.704749
718   2 0.0000 17.114246 19.966620 11.409497
719   2 0.0000 17.114246 19.966620 17.114246
720   2 0.0000 17.114246 19.966620 22.818994
721   2 0.0000 17.114246 25.671369  0.000000
722   2 0.0000 17.114246 25.671369  5.704749
723   2 0.0000 17.114246 25.671369 11.409497
724   2 0.0000 17.114246 25.671369 17.114246
725   2 0.0000 17.114246 25.671369 22.818994
726   2 0.0000 22.818994  2.852374  0.000000
727   2 0.0000 22.818994  2.852374  5.704749
728   2 0.0000 22.818994  2.852374 11.409497
729   2 0.0000 22.818994  2.852374 17.114246
730   2 0.0000 22.818994  2.852374 22.818994
731   2 0.0000 22.818994  8.557123  0.000000
732   2 0.0000 22.818994  8.557123  5.704749
733   2 0.0000 22.818994  8.557123 11.409497
734   2 0.0000 22.818994  8.557123 17.114246
735   2 0.0000 22.818994  8.557123 22.818994
736   2 0.0000 22.818994 14.261871 -0.000000
737   2 0.0000 22.818994 14.261871  5.704749
738   2 0.0000 22.818994 14.261871 11.409497
739   2 0.0000 22.818994 14.261871 17.114246
740   2 0.0000 22.818994 14.261871 22.818994
741   2 0.0000 22.818994 19.966620  0.000000
742   2 0.0000 22.818994 19.966620  5.704749
743   2 0.0000 22.818994 19.966620 11.409497
744   2 0.0000 22.818994 19.966620 17.114246
745   2 0.0000 22.818994 19.966620 22.818994
746   2 0.0000 22.818994 25.671369  0.000000
747   2 0.0000 22.818994 25.671369  5.704749
748   2 0.0000 22.818994 25.671369 11.409497
749   2 0.0000 22.818994 25.671369 17.114246
750   2 0.0000 22.818994 25.671369 22.818994
751   2 0.0000  2.852374 -0.000000  0.000000
752   2 0.0000  2.852374  0.000000  5.704749
753   2 0.0000  2.852374  0.000000 11.409497
754   2 0.0000  2.852374  0.000000 17.114246
755   2 0.0000  2.852374  0.000000 22.818994
756   2 0.0000  2.852374  5.704749  0.000000
757   2 0.0000  2.852374  5.704749  5.704749
758   2 0.0000  2.852374  5.704749 11.409497
759   2 0.0000  2.852374  5.704749 17.114246
760   2 0.0000  2.852374  5.704749 22.818994
761   2 0.0000  2.852374 11.409497  0.000000
762   2 0.0000  2.852374 11.409497  5.704749
763   2 0.0000  2.852374 11.409497 11.409497
764   2 0.0000  2.852374 11.409497 17.114246
765   2 0.0000  2.852374 11.409497 22.818994
766   2 0.0000  2.852374 17.114246  0.000000
767   2 0.0000  2.852374 17.114246  5.704749
768   2 0.0000  2.852374 17.114246 11.409497
769   2 0.0000  2.852374 17.114246 17.114246
770   2 0.0000  2.852374 17.114246 22.818994
771   2 0.0000  2.852374 22.818994  0.000000
772   2 0.0000  2.852374 22.818994  5.704749
773   2 0.0000  2.852374 22.818994 11.409497
774   2 0.0000  2.852374 22.818994 17.114246
775   2 0.0000  2.852374 22.818994 22.818994
776   2 0.0000  8.557123 -0.000000  0.000000
777   2 0.0000  8.557123  0.000000  5.704749
778   2 0.0000  8.557123  0.000000 11.409497
779   2 0.0000  8.557123  0.000000 17.114246
780   2 0.0000  8.557123  0.000000 22.818994
781   2 0.0000  8.557123  5.704749  0.000000
782   2 0.0000  8.557123  5.704749  5.704749
783   2 0.0000  8.557123  5.704749 11.409497
784   2 0.0000  8.557123  5.704749 17.114246
785   2 0.0000  8.557123  5.704749 22.818994
786   2 0.0000  8.557123 11.409497  0.000000
787   2 0.0000  8.557123 11.409497  5.704749
788   2 0.0000  8.557123 11.409497 11.409497
789   2 0.0000  8.557123 11.409497 17.114246
790   2 0.0000  8.557123 11.409497 22.818994
791   2 0.0000  8.557123 17.114246  0.000000
792   2 0.0000  8.557123 17.114246  5.704749
793   2 0.0000  8.557123 17.114246 11.409497
794   2 0.0000  8.557123 17.114246 17.114246
795   2 0.0000  8.557123 17.114246 22.818994
796   2 0.0000  8.557123 22.818994  0.000000
797   2 0.0000  8.557123 22.818994  5.704749
798   2 0.0000  8.557123 22.818994 11.409497
799   2 0.0000  8.557123 22.818994 17.114246
800   2 0.0000  8.557123 22.818994 22.818994
801   2 0.0000 14.261871 -0.000000  0.000000
802   2 0.0000 14.261871  0.000000  5.704749
803   2 0.0000 14.261871  0.000000 11.409497
804   2 0.0000 14.261871  0.000000 17.114246
805   2 0.0000 14.261871  0.000000 22.818994
806   2 0.0000 14.261871  5.704749 -0.000000
807   2 0.0000 14.261871  5.704749  5.704749
808   2 0.0000 14.261871  5.704749 11.409497
809   2 0.0000 14.261871  5.704749 17.114246
810   2 0.0000 14.261871  5.704749 22.818994
811   2 0.0000 14.261871 11.409497  0.000000
812   2 0.0000 14.261871 11.409497  5.704749
813   2 0.0000 14.261871 11.409497 11.409497
814   2 0.0000 14.261871 11.409497 17.114246
815   2 0.0000 14.261871 11.409497 22.818994
816   2 0.0000 14.261871 17.114246 -0.000000
817   2 0.0000 14.261871 17.114246  5.704749
818   2 0.0000 14.261871 17.114246 11.409497
819   2 0.0000 14.261871 17.114246 17.114246
820   2 0.0000 14.261871 17.114246 22.818994
821   2 0.0000 14.261871 22.818994  0.000000
822   2 0.0000 14.261871 22.818994  5.704749
823   2 0.0000 14.261871 22.818994 11.409497
824   2 0.0000 14.261871 22.818994 17.114246
825   2 0.0000 14.261871 22.818994 22.818994
826   2 0.0000 19.966620 -0.000000  0.000000
827   2 0.0000 19.966620  0.000000  5.704749
828   2 0.0000 19.966620  0.000000 11.409497
829   2 0.0000 19.966620  0.000000 17.114246
830   2 0.0000 19.966620  0.000000 22.818994
831   2 0.0000 19.966620  5.704749  0.000000
832   2 0.0000 19.966620  5.704749  5.704749
833   2 0.0000 19.966620  5.704749 11.409497
834   2 0.0000 19.966620  5.704749 17.114246
835   2 0.0000 19.966620  5.704749 22.818994
836   2 0.0000 19.966620 11.409497  0.000000
837   2 0.0000 19.966620 11.409497  5.704749
838   2 0.0000 19.966620 11.409497 11.409497
839   2 0.0000 19.966620 11.409497 17.114246
840   2 0.0000 19.966620 11.409497 22.818994
841   2 0.0000 19.966620 17.114246  0.000000
842   2 0.0000 19.966620 17.114246  5.704749
843   2 0.0000 19.966620 17.114246 11.409497
844   2 0.0000 19.966620 17.114246 17.114246
845   2 0.0000 19.966620 17.114246 22.818994
846   2 0.0000 19.966620 22.818994  0.000000
847   2 0.0000 19.966620 22.818994  5.704749
848   2 0.0000 19.966620 22.818994 11.409497
849   2 0.0000 19.966620 22.818994 17.114246
850   2 0.0000 19.966620 22.818994 22.818994
851   2 0.0000 25.671369 -0.000000 -0.000000
852   2 0.0000 25.671369  0.000000  5.704749
853   2 0.0000 25.671369  0.000000 11.409497
854   2 0.0000 25.671369  0.000000 17.114246
855   2 0.0000 25.671369  0.000000 22.818994
856   2 0.0000 25.671369  5.704749 -0.000000
857   2 0.0000 25.671369  5.704749  5.704749
858   2 0.0000 25.671369  5.704749 11.409497
859   2 0.0000 25.671369  5.704749 17.114246
860   2 0.0000 25.671369  5.704749 22.818994
861   2 0.0000 25.671369 11.409497 -0.000000
862   2 0.0000 25.671369 11.409497  5.704749
863   2 0.0000 25.671369 11.409497 11.409497
864   2 0.0000 25.671369 11.409497 17.114246
865   2 0.0000 25.671369 11.409497 22.818994
866   2 0.0000 25.671369 17.114246  0.000000
867   2 0.0000 25.671369 17.114246  5.704749
868   2 0.0000 25.671369 17.114246 11.409497
869   2 0.0000 25.671369 17.114246 17.114246
870   2 0.0000 25.671369 17.114246 22.818994
871   2 0.0000 25.671369 22.818994  0.000000
872   2 0.0000 25.671369 22.818994  5.704749
873   2 0.0000 25.671369 22.818994 11.409497
874   2 0.0000 25.671369 22.818994 17.114246
875   2 0.0000 25.671369 22.818994 22.818994
876   2 0.0000  2.852374  2.852374  2.852374
877   2 0.0000  2.852374  2.852374  8.557123
878   2 0.0000  2.852374  2.852374 14.261871
879   2 0.0000  2.852374  2.852374 19.966620
880   2 0.0000  2.852374  2.852374 25.671369
881   2 0.0000  2.852374  8.557123  2.852374
882   2 0.0000  2.852374  8.557123  8.557123
883   2 0.0000  2.852374  8.557123 14.261871
884   2 0.0000  2.852374  8.557123 19.966620
885   2 0.0000  2.852374  8.557123 25.671369
886   2 0.0000  2.852374 14.261871  2.852374
887   2 0.0000  2.852374 14.261871  8.557123
888   2 0.0000  2.852374 14.261871 14.261871
889   2 0.0000  2.852374 14.261871 19.966620
890   2 0.0000  2.852374 14.261871 25.671369
891   2 0.0000  2.852374 19.966620  2.852374
892   2 0.0000  2.852374 19.966620  8.557123
893   2 0.0000  2.852374 19.966620 14.261871
894   2 0.0000  2.852374 19.966620 19.966620
895   2 0.0000  2.852374 19.966620 25.671369
896   2 0.0000  2.852374 25.671369  2.852374
897   2 0.0000  2.852374 25.671369  8.557123
898   2 0.0000  2.852374 25.671369 14.261871
899   2 0.0000  2.852374 25.671369 19.966620
900   2 0.0000  2.852374 25.671369 25.671369
901   2 0.0000  8.557123  2.852374  2.852374
902   2 0.0000  8.557123  2.852374  8.557123
903   2 0.0000  8.557123  2.852374 14.261871
904   2 0.0000  8.557123  2.852374 19.966620
905   2 0.0000  8.557123  2.852374 25.671369
906   2 0.0000  8.557123  8.557123  2.852374
907   2 0.0000  8.557123  8.557123  8.557123
908   2 0.0000  8.557123  8.557123 14.261871
909   2 0.0000  8.557123  8.557123 19.966620
910   2 0.0000  8.557123  8.557123 25.671369
911   2 0.0000  8.557123 14.261871  2.852374
912   2 0.0000  8.557123 14.261871  8.557123
913   2 0.0000  8.557123 14.261871 14.261871
914   2 0.0000  8.557123 14.261871 19.966620
915   2 0.0000  8.557123 14.261871 25.671369
916   2 0.0000  8.557123 19.966620  2.852374
917   2 0.0000  8.557123 19.966620  8.557123
918   2 0.0000  8.557123 19.966620 14.261871
919   2 0.0000  8.557123 19.966620 19.966620
920   2 0.0000  8.557123 19.966620 25.671369
921   2 0.0000  8.557123 25.671369  2.852374
922   2 0.0000  8.557123 25.671369  8.557123
923   2 0.0000  8.557123 25.671369 14.261871
924   2 0.0000  8.557123 25.671369 19.966620
925   2 0.0000  8.557123 25.671369 25.671369
926   2 0.0000 14.261871  2.852374  2.852374
927   2 0.0000 14.261871  2.852374  8.557123
928   2 0.0000 14.261871  2.852374 14.261871
929   2 0.0000 14.261871  2.852374 19.966620
930   2 0.0000 14.261871  2.852374 25.671369
931   2 0.0000 14.261871  8.557123  2.852374
932   2 0.0000 14.261871  8.557123  8.557123
933   2 0.0000 14.261871  8.557123 14.261871
934   2 0.0000 14.261871  8.557123 19.966620
935   2 0.0000 14.261871  8.557123 25.671369
936   2 0.0000 14.261871 14.261871  2.852374
937   2 0.0000 14.261871 14.261871  8.557123
938   2 0.0000 14.261871 14.261871 14.261871
939   2 0.0000 14.261871 14.261871 19.966620
940   2 0.0000 14.261871 14.261871 25.671369
941   2 0.0000 14.261871 19.966620  2.852374
942   2 0.0000 14.261871 19.966620  8.557123
943   2 0.0000 14.261871 19.966620 14.261871
944   2 0.0000 14.261871 19.966620 19.966620
945   2 0.0000 14.261871 19.966620 25.671369
946   2 0.0000 14.261871 25.671369  2.852374
947   2 0.0000 14.261871 25.671369  8.557123
948   2 0.0000 14.261871 25.671369 14.261871
949   2 0.0000 14.261871 25.671369 19.966620
950   2 0.0000 14.261871 25.671369 25.671369
951   2 0.0000 19.966620  2.852374  2.852374
952   2 0.0000 19.966620  2.852374  8.557123
953   2 0.0000 19.966620  2.852374 14.261871
954   2 0.0000 19.966620  2.852374 19.966620
955   2 0.0000 19.966620  2.852374 25.671369
956   2 0.0000 19.966620  8.557123  2.852374
957   2 0.0000 19.966620  8.557123  8.557123
958   2 0.0000 19.966620  8.557123 14.261871
959   2 0.0000 19.966620  8.557123 19.966620
960   2 0.0000 19.966620  8.557123 25.671369
961   2 0.0000 19.966620 14.261871  2.852374
962   2 0.0000 19.966620 14.261871  8.557123
963   2 0.0000 19.966620 14.261871 14.261871
964   2 0.0000 19.966620 14.261871 19.966620
965   2 0.0000 19.966620 14.261871 25.671369
966   2 0.0000 19.966620 19.966620  2.852374
967   2 0.0000 19.966620 19.966620  8.557123
968   2 0.0000 19.966620 19.966620 14.261871
969   2 0.0000 19.966620 19.966620 19.966620
970   2 0.0000 19.966620 19.966620 25.671369
971   2 0.0000 19.966620 25.671369  2.852374
972   2 0.0000 19.966620 25.671369  8.557123
973   2 0.0000 19.966620 25.671369 14.261871
974   2 0.0000 19.966620 25.671369 19.966620
975   2 0.0000 19.966620 25.671369 25.671369
976   2 0.0000 25.671369  2.852374  2.852374
977   2 0.0000 25.671369  2.852374  8.557123
978   2 0.0000 25.671369  2.852374 14.261871
979   2 0.0000 25.671369  2.852374 19.966620
980   2 0.0000 25.671369  2.852374 25.671369
981   2 0.0000 25.671369  8.557123  2.852374
982   2 0.0000 25.671369  8.557123  8.557123
983   2 0.0000 25.671369  8.557123 14.261871
984   2 0.0000 25.671369  8.557123 19.966620
985   2 0.0000 25.671369  8.557123 25.671369
986   2 0.0000 25.671369 14.261871  2.852374
987   2 0.0000 25.671369 14.261871  8.557123
988   2 0.0000 25.671369 14.261871 14.261871
989   2 0.0000 25.671369 14.261871 19.966620
990   2 0.0000 25.671369 14.261871 25.671369
991   2 0.0000 25.671369 19.966620  2.852374
992   2 0.0000 25.671369 19.966620  8.557123
993   2 0.0000 25.671369 19.966620 14.261871
994   2 0.0000 25.671369 19.966620 19.966620
995   2 0.0000 25.671369 19.966620 25.671369
996   2 0.0000 25.671369 25.671369  2.852374
997   2 0.0000 25.671369 25.671369  8.557123
998   2 0.0000 25.671369 25.671369 14.261871
999   2 0.0000 25.671369 25.671369 19.966620
1000  2 0.0000 25.671369 25.671369 25.671369

