Generated by pymatgen.io.lammps.data.LammpsData

500  atoms

  3  atom types

0.000000 27.044169  xlo xhi
0.000000 13.886386  ylo yhi
0.000000 12.316877  zlo zhi
23.206800 23.206799 6.412978  xy xz yz

Masses

1  22.989769
2  58.933195
3  15.999400

Atoms

1    1 0.0000  0.000000  0.000000  0.000000
2    1 0.0000  4.641360  1.282596  2.463375
3    1 0.0000  9.282719  2.565191  4.926751
4    1 0.0000 13.924079  3.847787  7.390126
5    1 0.0000 18.565439  5.130382  9.853502
6    1 0.0000  4.641360  2.777277 -0.000000
7    1 0.0000  9.282720  4.059873  2.463375
8    1 0.0000 13.924079  5.342468  4.926751
9    1 0.0000 18.565439  6.625064  7.390126
10   1 0.0000 23.206799  7.907659  9.853502
11   1 0.0000  9.282720  5.554554 -0.000000
12   1 0.0000 13.924080  6.837150  2.463375
13   1 0.0000 18.565440  8.119745  4.926751
14   1 0.0000 23.206799  9.402341  7.390126
15   1 0.0000 27.848159 10.684937  9.853502
16   1 0.0000 13.924080  8.331832 -0.000000
17   1 0.0000 18.565440  9.614427  2.463375
18   1 0.0000 23.206800 10.897023  4.926751
19   1 0.0000 27.848159 12.179618  7.390126
20   1 0.0000 32.489519 13.462214  9.853502
21   1 0.0000 18.565440 11.109109 -0.000000
22   1 0.0000 23.206800 12.391704  2.463375
23   1 0.0000 27.848160 13.674300  4.926751
24   1 0.0000 32.489519 14.956895  7.390126
25   1 0.0000 37.130879 16.239491  9.853502
26   1 0.0000  5.408834 -0.000000 -0.000000
27   1 0.0000 10.050194  1.282596  2.463375
28   1 0.0000 14.691553  2.565191  4.926751
29   1 0.0000 19.332913  3.847787  7.390126
30   1 0.0000 23.974273  5.130382  9.853502
31   1 0.0000 10.050194  2.777277 -0.000000
32   1 0.0000 14.691554  4.059873  2.463375
33   1 0.0000 19.332913  5.342468  4.926751
34   1 0.0000 23.974273  6.625064  7.390126
35   1 0.0000 28.615633  7.907659  9.853502
36   1 0.0000 14.691554  5.554554 -0.000000
37   1 0.0000 19.332914  6.837150  2.463375
38   1 0.0000 23.974273  8.119745  4.926751
39   1 0.0000 28.615633  9.402341  7.390126
40   1 0.0000 33.256993 10.684937  9.853502
41   1 0.0000 19.332914  8.331832 -0.000000
42   1 0.0000 23.974274  9.614427  2.463375
43   1 0.0000 28.615633 10.897023  4.926751
44   1 0.0000 33.256993 12.179618  7.390126
45   1 0.0000 37.898353 13.462214  9.853502
46   1 0.0000 23.974274 11.109109 -0.000000
47   1 0.0000 28.615634 12.391704  2.463375
48   1 0.0000 33.256993 13.674300  4.926751
49   1 0.0000 37.898353 14.956895  7.390126
50   1 0.0000 42.539713 16.239491  9.853502
51   1 0.0000 10.817668 -0.000000 -0.000000
52   1 0.0000 15.459027  1.282596  2.463375
53   1 0.0000 20.100387  2.565191  4.926751
54   1 0.0000 24.741747  3.847787  7.390126
55   1 0.0000 29.383107  5.130382  9.853502
56   1 0.0000 15.459028  2.777277 -0.000000
57   1 0.0000 20.100387  4.059873  2.463375
58   1 0.0000 24.741747  5.342468  4.926751
59   1 0.0000 29.383107  6.625064  7.390126
60   1 0.0000 34.024467  7.907659  9.853502
61   1 0.0000 20.100388  5.554554 -0.000000
62   1 0.0000 24.741747  6.837150  2.463375
63   1 0.0000 29.383107  8.119745  4.926751
64   1 0.0000 34.024467  9.402341  7.390126
65   1 0.0000 38.665827 10.684937  9.853502
66   1 0.0000 24.741748  8.331832 -0.000000
67   1 0.0000 29.383107  9.614427  2.463375
68   1 0.0000 34.024467 10.897023  4.926751
69   1 0.0000 38.665827 12.179618  7.390126
70   1 0.0000 43.307187 13.462214  9.853502
71   1 0.0000 29.383108 11.109109 -0.000000
72   1 0.0000 34.024468 12.391704  2.463375
73   1 0.0000 38.665827 13.674300  4.926751
74   1 0.0000 43.307187 14.956895  7.390126
75   1 0.0000 47.948547 16.239491  9.853502
76   1 0.0000 16.226502 -0.000000 -0.000000
77   1 0.0000 20.867861  1.282596  2.463375
78   1 0.0000 25.509221  2.565191  4.926751
79   1 0.0000 30.150581  3.847787  7.390126
80   1 0.0000 34.791940  5.130382  9.853502
81   1 0.0000 44.074660  9.190255 12.316877
82   1 0.0000 25.509221  4.059873  2.463375
83   1 0.0000 30.150581  5.342468  4.926751
84   1 0.0000 34.791941  6.625064  7.390126
85   1 0.0000 39.433300  7.907659  9.853502
86   1 0.0000 25.509222  5.554554 -0.000000
87   1 0.0000 30.150581  6.837150  2.463375
88   1 0.0000 34.791941  8.119745  4.926751
89   1 0.0000 39.433301  9.402341  7.390126
90   1 0.0000 44.074661 10.684937  9.853502
91   1 0.0000 30.150582  8.331832 -0.000000
92   1 0.0000 34.791941  9.614427  2.463375
93   1 0.0000 39.433301 10.897023  4.926751
94   1 0.0000 44.074661 12.179618  7.390126
95   1 0.0000 48.716021 13.462214  9.853502
96   1 0.0000 34.791942 11.109109 -0.000000
97   1 0.0000 39.433301 12.391704  2.463375
98   1 0.0000 44.074661 13.674300  4.926751
99   1 0.0000 48.716021 14.956895  7.390126
100  1 0.0000 53.357381 16.239491  9.853502
101  1 0.0000 21.635335 -0.000000 -0.000000
102  1 0.0000 26.276695  1.282596  2.463375
103  1 0.0000 30.918055  2.565191  4.926751
104  1 0.0000 35.559415  3.847787  7.390126
105  1 0.0000 40.200774  5.130382  9.853502
106  1 0.0000 26.276695  2.777277 -0.000000
107  1 0.0000 30.918055  4.059873  2.463375
108  1 0.0000 35.559415  5.342468  4.926751
109  1 0.0000 40.200775  6.625064  7.390126
110  1 0.0000 44.842134  7.907659  9.853502
111  1 0.0000 30.918055  5.554554 -0.000000
112  1 0.0000 35.559415  6.837150  2.463375
113  1 0.0000 40.200775  8.119745  4.926751
114  1 0.0000 44.842135  9.402341  7.390126
115  1 0.0000 49.483494 10.684937  9.853502
116  1 0.0000 35.559415  8.331832 -0.000000
117  1 0.0000 40.200775  9.614427  2.463375
118  1 0.0000 44.842135 10.897023  4.926751
119  1 0.0000 49.483495 12.179618  7.390126
120  1 0.0000 54.124854 13.462214  9.853502
121  1 0.0000 40.200775 11.109109 -0.000000
122  1 0.0000 44.842135 12.391704  2.463375
123  1 0.0000 49.483495 13.674300  4.926751
124  1 0.0000 54.124855 14.956895  7.390126
125  1 0.0000 58.766214 16.239491  9.853502
126  2 0.0000  7.345777  2.029936  1.231688
127  2 0.0000 11.987137  3.312532  3.695063
128  2 0.0000 16.628496  4.595127  6.158439
129  2 0.0000 21.269856  5.877723  8.621814
130  2 0.0000 25.911216  7.160318 11.085190
131  2 0.0000 11.987137  4.807214  1.231688
132  2 0.0000 16.628497  6.089809  3.695063
133  2 0.0000 21.269856  7.372405  6.158439
134  2 0.0000 25.911216  8.655000  8.621814
135  2 0.0000 30.552576  9.937596 11.085190
136  2 0.0000 16.628497  7.584491  1.231688
137  2 0.0000 21.269857  8.867086  3.695063
138  2 0.0000 25.911216 10.149682  6.158439
139  2 0.0000 30.552576 11.432277  8.621814
140  2 0.0000 35.193936 12.714873 11.085190
141  2 0.0000 21.269857 10.361768  1.231688
142  2 0.0000 25.911217 11.644363  3.695063
143  2 0.0000 30.552576 12.926959  6.158439
144  2 0.0000 35.193936 14.209555  8.621814
145  2 0.0000 39.835296 15.492150 11.085190
146  2 0.0000 25.911217 13.139045  1.231688
147  2 0.0000 30.552577 14.421641  3.695063
148  2 0.0000 35.193936 15.704236  6.158439
149  2 0.0000 39.835296 16.986832  8.621814
150  2 0.0000 44.476656 18.269427 11.085190
151  2 0.0000 12.754611  2.029936  1.231688
152  2 0.0000 17.395970  3.312532  3.695063
153  2 0.0000 22.037330  4.595127  6.158439
154  2 0.0000 26.678690  5.877723  8.621814
155  2 0.0000 31.320050  7.160318 11.085190
156  2 0.0000 17.395971  4.807214  1.231688
157  2 0.0000 22.037330  6.089809  3.695063
158  2 0.0000 26.678690  7.372405  6.158439
159  2 0.0000 31.320050  8.655000  8.621814
160  2 0.0000 35.961410  9.937596 11.085190
161  2 0.0000 22.037331  7.584491  1.231688
162  2 0.0000 26.678690  8.867086  3.695063
163  2 0.0000 31.320050 10.149682  6.158439
164  2 0.0000 35.961410 11.432277  8.621814
165  2 0.0000 40.602770 12.714873 11.085190
166  2 0.0000 26.678691 10.361768  1.231688
167  2 0.0000 31.320050 11.644363  3.695063
168  2 0.0000 35.961410 12.926959  6.158439
169  2 0.0000 40.602770 14.209555  8.621814
170  2 0.0000 45.244130 15.492150 11.085190
171  2 0.0000 31.320051 13.139045  1.231688
172  2 0.0000 35.961410 14.421641  3.695063
173  2 0.0000 40.602770 15.704236  6.158439
174  2 0.0000 45.244130 16.986832  8.621814
175  2 0.0000 49.885490 18.269427 11.085190
176  2 0.0000 18.163445  2.029936  1.231688
177  2 0.0000 22.804804  3.312532  3.695063
178  2 0.0000 27.446164  4.595127  6.158439
179  2 0.0000 32.087524  5.877723  8.621814
180  2 0.0000 36.728883  7.160318 11.085190
181  2 0.0000 22.804805  4.807214  1.231688
182  2 0.0000 27.446164  6.089809  3.695063
183  2 0.0000 32.087524  7.372405  6.158439
184  2 0.0000 36.728884  8.655000  8.621814
185  2 0.0000 41.370243  9.937596 11.085190
186  2 0.0000 27.446165  7.584491  1.231688
187  2 0.0000 32.087524  8.867086  3.695063
188  2 0.0000 36.728884 10.149682  6.158439
189  2 0.0000 41.370244 11.432277  8.621814
190  2 0.0000 46.011603 12.714873 11.085190
191  2 0.0000 32.087525 10.361768  1.231688
192  2 0.0000 36.728884 11.644363  3.695063
193  2 0.0000 41.370244 12.926959  6.158439
194  2 0.0000 46.011604 14.209555  8.621814
195  2 0.0000 50.652963 15.492150 11.085190
196  2 0.0000 36.728885 13.139045  1.231688
197  2 0.0000 41.370244 14.421641  3.695063
198  2 0.0000 46.011604 15.704236  6.158439
199  2 0.0000 50.652964 16.986832  8.621814
200  2 0.0000 55.294324 18.269427 11.085190
201  2 0.0000 23.572278  2.029936  1.231688
202  2 0.0000 28.213638  3.312532  3.695063
203  2 0.0000 32.854998  4.595127  6.158439
204  2 0.0000 37.496358  5.877723  8.621814
205  2 0.0000 42.137717  7.160318 11.085190
206  2 0.0000 28.213638  4.807214  1.231688
207  2 0.0000 32.854998  6.089809  3.695063
208  2 0.0000 37.496358  7.372405  6.158439
209  2 0.0000 42.137718  8.655000  8.621814
210  2 0.0000 46.779077  9.937596 11.085190
211  2 0.0000 32.854998  7.584491  1.231688
212  2 0.0000 37.496358  8.867086  3.695063
213  2 0.0000 42.137718 10.149682  6.158439
214  2 0.0000 46.779078 11.432277  8.621814
215  2 0.0000 51.420437 12.714873 11.085190
216  2 0.0000 37.496358 10.361768  1.231688
217  2 0.0000 42.137718 11.644363  3.695063
218  2 0.0000 46.779078 12.926959  6.158439
219  2 0.0000 51.420438 14.209555  8.621814
220  2 0.0000 56.061797 15.492150 11.085190
221  2 0.0000 42.137718 13.139045  1.231688
222  2 0.0000 46.779078 14.421641  3.695063
223  2 0.0000 51.420438 15.704236  6.158439
224  2 0.0000 56.061798 16.986832  8.621814
225  2 0.0000 60.703157 18.269427 11.085190
226  2 0.0000 28.981112  2.029936  1.231688
227  2 0.0000 33.622472  3.312532  3.695063
228  2 0.0000 38.263832  4.595127  6.158439
229  2 0.0000 42.905191  5.877723  8.621814
230  2 0.0000 47.546551  7.160318 11.085190
231  2 0.0000 33.622472  4.807214  1.231688
232  2 0.0000 38.263832  6.089809  3.695063
233  2 0.0000 42.905192  7.372405  6.158439
234  2 0.0000 47.546551  8.655000  8.621814
235  2 0.0000 52.187911  9.937596 11.085190
236  2 0.0000 38.263832  7.584491  1.231688
237  2 0.0000 42.905192  8.867086  3.695063
238  2 0.0000 47.546552 10.149682  6.158439
239  2 0.0000 52.187911 11.432277  8.621814
240  2 0.0000 56.829271 12.714873 11.085190
241  2 0.0000 42.905192 10.361768  1.231688
242  2 0.0000 47.546552 11.644363  3.695063
243  2 0.0000 52.187912 12.926959  6.158439
244  2 0.0000 56.829271 14.209555  8.621814
245  2 0.0000 61.470631 15.492150 11.085190
246  2 0.0000 47.546552 13.139045  1.231688
247  2 0.0000 52.187912 14.421641  3.695063
248  2 0.0000 56.829272 15.704236  6.158439
249  2 0.0000 61.470631 16.986832  8.621814
250  2 0.0000 66.111991 18.269427 11.085190
251  3 0.0000  3.387769  0.936178  0.568037
252  3 0.0000  8.029128  2.218774  3.031412
253  3 0.0000 12.670488  3.501369  5.494788
254  3 0.0000 17.311848  4.783965  7.958163
255  3 0.0000 21.953207  6.066560 10.421539
256  3 0.0000  8.029129  3.713455  0.568037
257  3 0.0000 12.670488  4.996051  3.031412
258  3 0.0000 17.311848  6.278646  5.494788
259  3 0.0000 21.953208  7.561242  7.958163
260  3 0.0000 26.594567  8.843837 10.421539
261  3 0.0000 12.670489  6.490732  0.568037
262  3 0.0000 17.311848  7.773328  3.031412
263  3 0.0000 21.953208  9.055923  5.494788
264  3 0.0000 26.594568 10.338519  7.958163
265  3 0.0000 31.235927 11.621114 10.421539
266  3 0.0000 17.311849  9.268010  0.568037
267  3 0.0000 21.953208 10.550605  3.031412
268  3 0.0000 26.594568 11.833201  5.494788
269  3 0.0000 31.235928 13.115796  7.958163
270  3 0.0000 35.877288 14.398392 10.421539
271  3 0.0000 21.953209 12.045287  0.568037
272  3 0.0000 26.594568 13.327882  3.031412
273  3 0.0000 31.235928 14.610478  5.494788
274  3 0.0000 35.877288 15.893073  7.958163
275  3 0.0000 40.518648 17.175669 10.421539
276  3 0.0000  8.796602  0.936178  0.568037
277  3 0.0000 13.437962  2.218774  3.031412
278  3 0.0000 18.079322  3.501369  5.494788
279  3 0.0000 22.720682  4.783965  7.958163
280  3 0.0000 27.362041  6.066560 10.421539
281  3 0.0000 13.437962  3.713455  0.568037
282  3 0.0000 18.079322  4.996051  3.031412
283  3 0.0000 22.720682  6.278646  5.494788
284  3 0.0000 27.362042  7.561242  7.958163
285  3 0.0000 32.003401  8.843837 10.421539
286  3 0.0000 18.079322  6.490732  0.568037
287  3 0.0000 22.720682  7.773328  3.031412
288  3 0.0000 27.362042  9.055923  5.494788
289  3 0.0000 32.003402 10.338519  7.958163
290  3 0.0000 36.644761 11.621114 10.421539
291  3 0.0000 22.720682  9.268010  0.568037
292  3 0.0000 27.362042 10.550605  3.031412
293  3 0.0000 32.003402 11.833201  5.494788
294  3 0.0000 36.644762 13.115796  7.958163
295  3 0.0000 41.286121 14.398392 10.421539
296  3 0.0000 27.362042 12.045287  0.568037
297  3 0.0000 32.003402 13.327882  3.031412
298  3 0.0000 36.644762 14.610478  5.494788
299  3 0.0000 41.286122 15.893073  7.958163
300  3 0.0000 45.927481 17.175669 10.421539
301  3 0.0000 14.205436  0.936178  0.568037
302  3 0.0000 18.846796  2.218774  3.031412
303  3 0.0000 23.488156  3.501369  5.494788
304  3 0.0000 28.129515  4.783965  7.958163
305  3 0.0000 32.770875  6.066560 10.421539
306  3 0.0000 18.846796  3.713455  0.568037
307  3 0.0000 23.488156  4.996051  3.031412
308  3 0.0000 28.129516  6.278646  5.494788
309  3 0.0000 32.770875  7.561242  7.958163
310  3 0.0000 37.412235  8.843837 10.421539
311  3 0.0000 23.488156  6.490732  0.568037
312  3 0.0000 28.129516  7.773328  3.031412
313  3 0.0000 32.770876  9.055923  5.494788
314  3 0.0000 37.412235 10.338519  7.958163
315  3 0.0000 42.053595 11.621114 10.421539
316  3 0.0000 28.129516  9.268010  0.568037
317  3 0.0000 32.770876 10.550605  3.031412
318  3 0.0000 37.412236 11.833201  5.494788
319  3 0.0000 42.053595 13.115796  7.958163
320  3 0.0000 46.694955 14.398392 10.421539
321  3 0.0000 32.770876 12.045287  0.568037
322  3 0.0000 37.412236 13.327882  3.031412
323  3 0.0000 42.053596 14.610478  5.494788
324  3 0.0000 46.694956 15.893073  7.958163
325  3 0.0000 51.336315 17.175669 10.421539
326  3 0.0000 19.614270  0.936178  0.568037
327  3 0.0000 24.255630  2.218774  3.031412
328  3 0.0000 28.896990  3.501369  5.494788
329  3 0.0000 33.538349  4.783965  7.958163
330  3 0.0000 38.179709  6.066560 10.421539
331  3 0.0000 24.255630  3.713455  0.568037
332  3 0.0000 28.896990  4.996051  3.031412
333  3 0.0000 33.538350  6.278646  5.494788
334  3 0.0000 38.179709  7.561242  7.958163
335  3 0.0000 42.821069  8.843837 10.421539
336  3 0.0000 28.896990  6.490732  0.568037
337  3 0.0000 33.538350  7.773328  3.031412
338  3 0.0000 38.179710  9.055923  5.494788
339  3 0.0000 42.821069 10.338519  7.958163
340  3 0.0000 47.462429 11.621114 10.421539
341  3 0.0000 33.538350  9.268010  0.568037
342  3 0.0000 38.179710 10.550605  3.031412
343  3 0.0000 42.821070 11.833201  5.494788
344  3 0.0000 47.462429 13.115796  7.958163
345  3 0.0000 52.103789 14.398392 10.421539
346  3 0.0000 38.179710 12.045287  0.568037
347  3 0.0000 42.821070 13.327882  3.031412
348  3 0.0000 47.462430 14.610478  5.494788
349  3 0.0000 52.103789 15.893073  7.958163
350  3 0.0000 56.745149 17.175669 10.421539
351  3 0.0000 25.023104  0.936178  0.568037
352  3 0.0000 29.664464  2.218774  3.031412
353  3 0.0000 34.305823  3.501369  5.494788
354  3 0.0000 38.947183  4.783965  7.958163
355  3 0.0000 43.588543  6.066560 10.421539
356  3 0.0000 29.664464  3.713455  0.568037
357  3 0.0000 34.305824  4.996051  3.031412
358  3 0.0000 38.947183  6.278646  5.494788
359  3 0.0000 43.588543  7.561242  7.958163
360  3 0.0000 48.229903  8.843837 10.421539
361  3 0.0000 34.305824  6.490732  0.568037
362  3 0.0000 38.947184  7.773328  3.031412
363  3 0.0000 43.588543  9.055923  5.494788
364  3 0.0000 48.229903 10.338519  7.958163
365  3 0.0000 52.871263 11.621114 10.421539
366  3 0.0000 38.947184  9.268010  0.568037
367  3 0.0000 43.588544 10.550605  3.031412
368  3 0.0000 48.229903 11.833201  5.494788
369  3 0.0000 52.871263 13.115796  7.958163
370  3 0.0000 57.512623 14.398392 10.421539
371  3 0.0000 43.588544 12.045287  0.568037
372  3 0.0000 48.229904 13.327882  3.031412
373  3 0.0000 52.871263 14.610478  5.494788
374  3 0.0000 57.512623 15.893073  7.958163
375  3 0.0000 62.153983 17.175669 10.421539
376  3 0.0000 11.303800  3.123699  1.895341
377  3 0.0000 15.945159  4.406294  4.358716
378  3 0.0000 20.586519  5.688890  6.822092
379  3 0.0000 25.227879  6.971485  9.285467
380  3 0.0000 29.869239  8.254081 11.748843
381  3 0.0000 15.945160  5.900976  1.895341
382  3 0.0000 20.586520  7.183572  4.358716
383  3 0.0000 25.227879  8.466167  6.822092
384  3 0.0000 29.869239  9.748763  9.285467
385  3 0.0000 34.510599 11.031358 11.748843
386  3 0.0000 20.586520  8.678253  1.895341
387  3 0.0000 25.227880  9.960849  4.358716
388  3 0.0000 29.869239 11.243444  6.822092
389  3 0.0000 34.510599 12.526040  9.285467
390  3 0.0000 39.151959 13.808635 11.748843
391  3 0.0000 25.227880 11.455530  1.895341
392  3 0.0000 29.869240 12.738126  4.358716
393  3 0.0000 34.510599 14.020721  6.822092
394  3 0.0000 39.151959 15.303317  9.285467
395  3 0.0000 43.793319 16.585912 11.748843
396  3 0.0000 29.869240 14.232808  1.895341
397  3 0.0000 34.510600 15.515403  4.358716
398  3 0.0000 39.151959 16.797999  6.822092
399  3 0.0000 43.793319 18.080594  9.285467
400  3 0.0000 48.434679 19.363190 11.748843
401  3 0.0000 16.712634  3.123699  1.895341
402  3 0.0000 21.353993  4.406294  4.358716
403  3 0.0000 25.995353  5.688890  6.822092
404  3 0.0000 30.636713  6.971485  9.285467
405  3 0.0000 35.278073  8.254081 11.748843
406  3 0.0000 21.353994  5.900976  1.895341
407  3 0.0000 25.995353  7.183572  4.358716
408  3 0.0000 30.636713  8.466167  6.822092
409  3 0.0000 35.278073  9.748763  9.285467
410  3 0.0000 39.919433 11.031358 11.748843
411  3 0.0000 25.995354  8.678253  1.895341
412  3 0.0000 30.636713  9.960849  4.358716
413  3 0.0000 35.278073 11.243444  6.822092
414  3 0.0000 39.919433 12.526040  9.285467
415  3 0.0000 44.560793 13.808635 11.748843
416  3 0.0000 30.636714 11.455530  1.895341
417  3 0.0000 35.278073 12.738126  4.358716
418  3 0.0000 39.919433 14.020721  6.822092
419  3 0.0000 44.560793 15.303317  9.285467
420  3 0.0000 49.202153 16.585912 11.748843
421  3 0.0000 35.278074 14.232808  1.895341
422  3 0.0000 39.919433 15.515403  4.358716
423  3 0.0000 44.560793 16.797999  6.822092
424  3 0.0000 49.202153 18.080594  9.285467
425  3 0.0000 53.843513 19.363190 11.748843
426  3 0.0000 22.121467  3.123699  1.895341
427  3 0.0000 26.762827  4.406294  4.358716
428  3 0.0000 31.404187  5.688890  6.822092
429  3 0.0000 36.045547  6.971485  9.285467
430  3 0.0000 40.686906  8.254081 11.748843
431  3 0.0000 26.762827  5.900976  1.895341
432  3 0.0000 31.404187  7.183572  4.358716
433  3 0.0000 36.045547  8.466167  6.822092
434  3 0.0000 40.686907  9.748763  9.285467
435  3 0.0000 45.328266 11.031358 11.748843
436  3 0.0000 31.404187  8.678253  1.895341
437  3 0.0000 36.045547  9.960849  4.358716
438  3 0.0000 40.686907 11.243444  6.822092
439  3 0.0000 45.328267 12.526040  9.285467
440  3 0.0000 49.969626 13.808635 11.748843
441  3 0.0000 36.045548 11.455530  1.895341
442  3 0.0000 40.686907 12.738126  4.358716
443  3 0.0000 45.328267 14.020721  6.822092
444  3 0.0000 49.969627 15.303317  9.285467
445  3 0.0000 54.610986 16.585912 11.748843
446  3 0.0000 40.686908 14.232808  1.895341
447  3 0.0000 45.328267 15.515403  4.358716
448  3 0.0000 49.969627 16.797999  6.822092
449  3 0.0000 54.610987 18.080594  9.285467
450  3 0.0000 59.252346 19.363190 11.748843
451  3 0.0000 27.530301  3.123699  1.895341
452  3 0.0000 32.171661  4.406294  4.358716
453  3 0.0000 36.813021  5.688890  6.822092
454  3 0.0000 41.454380  6.971485  9.285467
455  3 0.0000 46.095740  8.254081 11.748843
456  3 0.0000 32.171661  5.900976  1.895341
457  3 0.0000 36.813021  7.183572  4.358716
458  3 0.0000 41.454381  8.466167  6.822092
459  3 0.0000 46.095741  9.748763  9.285467
460  3 0.0000 50.737100 11.031358 11.748843
461  3 0.0000 36.813021  8.678253  1.895341
462  3 0.0000 41.454381  9.960849  4.358716
463  3 0.0000 46.095741 11.243444  6.822092
464  3 0.0000 50.737101 12.526040  9.285467
465  3 0.0000 55.378460 13.808635 11.748843
466  3 0.0000 41.454381 11.455530  1.895341
467  3 0.0000 46.095741 12.738126  4.358716
468  3 0.0000 50.737101 14.020721  6.822092
469  3 0.0000 55.378461 15.303317  9.285467
470  3 0.0000 60.019820 16.585912 11.748843
471  3 0.0000 46.095741 14.232808  1.895341
472  3 0.0000 50.737101 15.515403  4.358716
473  3 0.0000 55.378461 16.797999  6.822092
474  3 0.0000 60.019821 18.080594  9.285467
475  3 0.0000 64.661180 19.363190 11.748843
476  3 0.0000 32.939135  3.123699  1.895341
477  3 0.0000 37.580495  4.406294  4.358716
478  3 0.0000 42.221855  5.688890  6.822092
479  3 0.0000 46.863214  6.971485  9.285467
480  3 0.0000 51.504574  8.254081 11.748843
481  3 0.0000 37.580495  5.900976  1.895341
482  3 0.0000 42.221855  7.183572  4.358716
483  3 0.0000 46.863215  8.466167  6.822092
484  3 0.0000 51.504574  9.748763  9.285467
485  3 0.0000 56.145934 11.031358 11.748843
486  3 0.0000 42.221855  8.678253  1.895341
487  3 0.0000 46.863215  9.960849  4.358716
488  3 0.0000 51.504575 11.243444  6.822092
489  3 0.0000 56.145934 12.526040  9.285467
490  3 0.0000 60.787294 13.808635 11.748843
491  3 0.0000 46.863215 11.455530  1.895341
492  3 0.0000 51.504575 12.738126  4.358716
493  3 0.0000 56.145935 14.020721  6.822092
494  3 0.0000 60.787294 15.303317  9.285467
495  3 0.0000 65.428654 16.585912 11.748843
496  3 0.0000 51.504575 14.232808  1.895341
497  3 0.0000 56.145935 15.515403  4.358716
498  3 0.0000 60.787295 16.797999  6.822092
499  3 0.0000 65.428654 18.080594  9.285467
500  3 0.0000 70.070014 19.363190 11.748843

