Generated by pymatgen.io.lammps.data.LammpsData

875  atoms

  4  atom types

0.000000 32.446457  xlo xhi
0.000000 23.850535  ylo yhi
0.000000 13.019335  zlo zhi
21.998285 -27.222371 -11.925268  xy xz yz

Masses

1  40.078000
2  88.905850
3  26.981539
4  15.999400

Atoms

1    1 0.0000   7.009859  3.070799 -0.000000
2    1 0.0000   1.565384  0.685746  2.603867
3    1 0.0000  -3.879090 -1.699308  5.207734
4    1 0.0000  -9.323564 -4.084361  7.811601
5    1 0.0000 -14.768038 -6.469415 10.415468
6    1 0.0000  11.409515  7.840906 -0.000000
7    1 0.0000   5.965041  5.455853  2.603867
8    1 0.0000   0.520567  3.070799  5.207734
9    1 0.0000  -4.923907  0.685746  7.811601
10   1 0.0000 -10.368381 -1.699308 10.415468
11   1 0.0000  15.809172 12.611013 -0.000000
12   1 0.0000  10.364698 10.225960  2.603867
13   1 0.0000   4.920224  7.840906  5.207734
14   1 0.0000  -0.524250  5.455853  7.811601
15   1 0.0000  -5.968724  3.070799 10.415468
16   1 0.0000  20.208829 17.381120 -0.000000
17   1 0.0000  14.764355 14.996067  2.603867
18   1 0.0000   9.319881 12.611013  5.207734
19   1 0.0000   3.875407 10.225960  7.811601
20   1 0.0000  -1.569067  7.840906 10.415468
21   1 0.0000  -2.613884 10.225960 13.019335
22   1 0.0000  19.164012 19.766174  2.603867
23   1 0.0000  13.719538 17.381120  5.207734
24   1 0.0000   8.275064 14.996067  7.811601
25   1 0.0000   2.830590 12.611013 10.415468
26   1 0.0000  13.499150  3.070799 -0.000000
27   1 0.0000   8.054676  0.685746  2.603867
28   1 0.0000   2.610202 -1.699308  5.207734
29   1 0.0000  -2.834273 -4.084361  7.811601
30   1 0.0000  -8.278747 -6.469415 10.415468
31   1 0.0000  17.898807  7.840906 -0.000000
32   1 0.0000  12.454333  5.455853  2.603867
33   1 0.0000   7.009859  3.070799  5.207734
34   1 0.0000   1.565384  0.685746  7.811601
35   1 0.0000  -3.879090 -1.699308 10.415468
36   1 0.0000  -4.923907  0.685746 13.019335
37   1 0.0000  16.853990 10.225960  2.603867
38   1 0.0000  11.409515  7.840906  5.207734
39   1 0.0000   5.965041  5.455853  7.811601
40   1 0.0000   0.520567  3.070799 10.415468
41   1 0.0000  26.698121 17.381120 -0.000000
42   1 0.0000  21.253647 14.996067  2.603867
43   1 0.0000  15.809172 12.611013  5.207734
44   1 0.0000  10.364698 10.225960  7.811601
45   1 0.0000   4.920224  7.840906 10.415468
46   1 0.0000  31.097778 22.151227 -0.000000
47   1 0.0000  25.653304 19.766174  2.603867
48   1 0.0000  20.208829 17.381120  5.207734
49   1 0.0000  14.764355 14.996067  7.811601
50   1 0.0000   9.319881 12.611013 10.415468
51   1 0.0000  19.988441  3.070799 -0.000000
52   1 0.0000  14.543967  0.685746  2.603867
53   1 0.0000   9.099493 -1.699308  5.207734
54   1 0.0000   3.655019 -4.084361  7.811601
55   1 0.0000  -1.789455 -6.469415 10.415468
56   1 0.0000  24.388098  7.840906 -0.000000
57   1 0.0000  18.943624  5.455853  2.603867
58   1 0.0000  13.499150  3.070799  5.207734
59   1 0.0000   8.054676  0.685746  7.811601
60   1 0.0000   2.610202 -1.699308 10.415468
61   1 0.0000   1.565384  0.685746 13.019335
62   1 0.0000  23.343281 10.225960  2.603867
63   1 0.0000  17.898807  7.840906  5.207734
64   1 0.0000  12.454333  5.455853  7.811601
65   1 0.0000   7.009859  3.070799 10.415468
66   1 0.0000  33.187412 17.381120 -0.000000
67   1 0.0000  27.742938 14.996067  2.603867
68   1 0.0000  22.298464 12.611013  5.207734
69   1 0.0000  16.853990 10.225960  7.811601
70   1 0.0000  11.409515  7.840906 10.415468
71   1 0.0000  10.364698 10.225960 13.019335
72   1 0.0000  32.142595 19.766174  2.603867
73   1 0.0000  26.698121 17.381120  5.207734
74   1 0.0000  21.253647 14.996067  7.811601
75   1 0.0000  15.809172 12.611013 10.415468
76   1 0.0000  26.477733  3.070799 -0.000000
77   1 0.0000  21.033258  0.685746  2.603867
78   1 0.0000  15.588784 -1.699308  5.207734
79   1 0.0000  10.144310 -4.084361  7.811601
80   1 0.0000   4.699836 -6.469415 10.415468
81   1 0.0000  30.877390  7.840906 -0.000000
82   1 0.0000  25.432915  5.455853  2.603867
83   1 0.0000  19.988441  3.070799  5.207734
84   1 0.0000  14.543967  0.685746  7.811601
85   1 0.0000   9.099493 -1.699308 10.415468
86   1 0.0000  35.277047 12.611013 -0.000000
87   1 0.0000  29.832572 10.225960  2.603867
88   1 0.0000  24.388098  7.840906  5.207734
89   1 0.0000  18.943624  5.455853  7.811601
90   1 0.0000  13.499150  3.070799 10.415468
91   1 0.0000  39.676704 17.381120 -0.000000
92   1 0.0000  34.232229 14.996067  2.603867
93   1 0.0000  28.787755 12.611013  5.207734
94   1 0.0000  23.343281 10.225960  7.811601
95   1 0.0000  17.898807  7.840906 10.415468
96   1 0.0000  44.076361 22.151227 -0.000000
97   1 0.0000  38.631886 19.766174  2.603867
98   1 0.0000  33.187412 17.381120  5.207734
99   1 0.0000  27.742938 14.996067  7.811601
100  1 0.0000  22.298464 12.611013 10.415468
101  1 0.0000  32.967024  3.070799 -0.000000
102  1 0.0000  27.522550  0.685746  2.603867
103  1 0.0000  22.078076 -1.699308  5.207734
104  1 0.0000  16.633601 -4.084361  7.811601
105  1 0.0000  11.189127 -6.469415 10.415468
106  1 0.0000  37.366681  7.840906 -0.000000
107  1 0.0000  31.922207  5.455853  2.603867
108  1 0.0000  26.477733  3.070799  5.207734
109  1 0.0000  21.033258  0.685746  7.811601
110  1 0.0000  15.588784 -1.699308 10.415468
111  1 0.0000  14.543967  0.685746 13.019335
112  1 0.0000  36.321864 10.225960  2.603867
113  1 0.0000  30.877390  7.840906  5.207734
114  1 0.0000  25.432915  5.455853  7.811601
115  1 0.0000  19.988441  3.070799 10.415468
116  1 0.0000  46.165995 17.381120 -0.000000
117  1 0.0000  40.721521 14.996067  2.603867
118  1 0.0000  35.277047 12.611013  5.207734
119  1 0.0000  29.832572 10.225960  7.811601
120  1 0.0000  24.388098  7.840906 10.415468
121  1 0.0000  23.343281 10.225960 13.019335
122  1 0.0000  45.121178 19.766174  2.603867
123  1 0.0000  39.676704 17.381120  5.207734
124  1 0.0000  34.232229 14.996067  7.811601
125  1 0.0000  28.787755 12.611013 10.415468
126  2 0.0000   3.904875  1.710603 -0.000000
127  2 0.0000  -1.539599 -0.674450  2.603867
128  2 0.0000  -6.984073 -3.059504  5.207734
129  2 0.0000 -12.428548 -5.444557  7.811601
130  2 0.0000 -17.873022 -7.829611 10.415468
131  2 0.0000   8.304532  6.480710 -0.000000
132  2 0.0000   2.860058  4.095657  2.603867
133  2 0.0000  -2.584416  1.710603  5.207734
134  2 0.0000  -8.028891 -0.674450  7.811601
135  2 0.0000 -13.473365 -3.059504 10.415468
136  2 0.0000  12.704189 11.250817 -0.000000
137  2 0.0000   7.259715  8.865764  2.603867
138  2 0.0000   1.815240  6.480710  5.207734
139  2 0.0000  -3.629234  4.095657  7.811601
140  2 0.0000  -9.073708  1.710603 10.415468
141  2 0.0000 -10.118525  4.095657 13.019335
142  2 0.0000  11.659372 13.635871  2.603867
143  2 0.0000   6.214897 11.250817  5.207734
144  2 0.0000   0.770423  8.865764  7.811601
145  2 0.0000  -4.674051  6.480710 10.415468
146  2 0.0000  21.503503 20.791031 -0.000000
147  2 0.0000  16.059029 18.405978  2.603867
148  2 0.0000  10.614554 16.020924  5.207734
149  2 0.0000   5.170080 13.635871  7.811601
150  2 0.0000  -0.274394 11.250817 10.415468
151  2 0.0000  10.394166  1.710603 -0.000000
152  2 0.0000   4.949692 -0.674450  2.603867
153  2 0.0000  -0.494782 -3.059504  5.207734
154  2 0.0000  -5.939256 -5.444557  7.811601
155  2 0.0000 -11.383730 -7.829611 10.415468
156  2 0.0000  14.793823  6.480710 -0.000000
157  2 0.0000   9.349349  4.095657  2.603867
158  2 0.0000   3.904875  1.710603  5.207734
159  2 0.0000  -1.539599 -0.674450  7.811601
160  2 0.0000  -6.984073 -3.059504 10.415468
161  2 0.0000  -8.028891 -0.674450 13.019335
162  2 0.0000  13.749006  8.865764  2.603867
163  2 0.0000   8.304532  6.480710  5.207734
164  2 0.0000   2.860058  4.095657  7.811601
165  2 0.0000  -2.584416  1.710603 10.415468
166  2 0.0000  23.593137 16.020924 -0.000000
167  2 0.0000  18.148663 13.635871  2.603867
168  2 0.0000  12.704189 11.250817  5.207734
169  2 0.0000   7.259715  8.865764  7.811601
170  2 0.0000   1.815240  6.480710 10.415468
171  2 0.0000  27.992794 20.791031 -0.000000
172  2 0.0000  22.548320 18.405978  2.603867
173  2 0.0000  17.103846 16.020924  5.207734
174  2 0.0000  11.659372 13.635871  7.811601
175  2 0.0000   6.214897 11.250817 10.415468
176  2 0.0000  16.883458  1.710603 -0.000000
177  2 0.0000  11.438983 -0.674450  2.603867
178  2 0.0000   5.994509 -3.059504  5.207734
179  2 0.0000   0.550035 -5.444557  7.811601
180  2 0.0000  -4.894439 -7.829611 10.415468
181  2 0.0000  -5.939256 -5.444557 13.019335
182  2 0.0000  15.838640  4.095657  2.603867
183  2 0.0000  10.394166  1.710603  5.207734
184  2 0.0000   4.949692 -0.674450  7.811601
185  2 0.0000  -0.494782 -3.059504 10.415468
186  2 0.0000  25.682772 11.250817 -0.000000
187  2 0.0000  20.238297  8.865764  2.603867
188  2 0.0000  14.793823  6.480710  5.207734
189  2 0.0000   9.349349  4.095657  7.811601
190  2 0.0000   3.904875  1.710603 10.415468
191  2 0.0000  30.082429 16.020924 -0.000000
192  2 0.0000  24.637954 13.635871  2.603867
193  2 0.0000  19.193480 11.250817  5.207734
194  2 0.0000  13.749006  8.865764  7.811601
195  2 0.0000   8.304532  6.480710 10.415468
196  2 0.0000   7.259715  8.865764 13.019335
197  2 0.0000  29.037611 18.405978  2.603867
198  2 0.0000  23.593137 16.020924  5.207734
199  2 0.0000  18.148663 13.635871  7.811601
200  2 0.0000  12.704189 11.250817 10.415468
201  2 0.0000  23.372749  1.710603 -0.000000
202  2 0.0000  17.928275 -0.674450  2.603867
203  2 0.0000  12.483801 -3.059504  5.207734
204  2 0.0000   7.039326 -5.444557  7.811601
205  2 0.0000   1.594852 -7.829611 10.415468
206  2 0.0000  27.772406  6.480710 -0.000000
207  2 0.0000  22.327932  4.095657  2.603867
208  2 0.0000  16.883458  1.710603  5.207734
209  2 0.0000  11.438983 -0.674450  7.811601
210  2 0.0000   5.994509 -3.059504 10.415468
211  2 0.0000  32.172063 11.250817 -0.000000
212  2 0.0000  26.727589  8.865764  2.603867
213  2 0.0000  21.283115  6.480710  5.207734
214  2 0.0000  15.838640  4.095657  7.811601
215  2 0.0000  10.394166  1.710603 10.415468
216  2 0.0000  36.571720 16.020924 -0.000000
217  2 0.0000  31.127246 13.635871  2.603867
218  2 0.0000  25.682772 11.250817  5.207734
219  2 0.0000  20.238297  8.865764  7.811601
220  2 0.0000  14.793823  6.480710 10.415468
221  2 0.0000  40.971377 20.791031 -0.000000
222  2 0.0000  35.526903 18.405978  2.603867
223  2 0.0000  30.082429 16.020924  5.207734
224  2 0.0000  24.637954 13.635871  7.811601
225  2 0.0000  19.193480 11.250817 10.415468
226  2 0.0000  29.862040  1.710603 -0.000000
227  2 0.0000  24.417566 -0.674450  2.603867
228  2 0.0000  18.973092 -3.059504  5.207734
229  2 0.0000  13.528618 -5.444557  7.811601
230  2 0.0000   8.084144 -7.829611 10.415468
231  2 0.0000  34.261697  6.480710 -0.000000
232  2 0.0000  28.817223  4.095657  2.603867
233  2 0.0000  23.372749  1.710603  5.207734
234  2 0.0000  17.928275 -0.674450  7.811601
235  2 0.0000  12.483801 -3.059504 10.415468
236  2 0.0000  38.661354 11.250817 -0.000000
237  2 0.0000  33.216880  8.865764  2.603867
238  2 0.0000  27.772406  6.480710  5.207734
239  2 0.0000  22.327932  4.095657  7.811601
240  2 0.0000  16.883458  1.710603 10.415468
241  2 0.0000  15.838640  4.095657 13.019335
242  2 0.0000  37.616537 13.635871  2.603867
243  2 0.0000  32.172063 11.250817  5.207734
244  2 0.0000  26.727589  8.865764  7.811601
245  2 0.0000  21.283115  6.480710 10.415468
246  2 0.0000  47.460668 20.791031 -0.000000
247  2 0.0000  42.016194 18.405978  2.603867
248  2 0.0000  36.571720 16.020924  5.207734
249  2 0.0000  31.127246 13.635871  7.811601
250  2 0.0000  25.682772 11.250817 10.415468
251  3 0.0000   0.058038  0.025425 -0.000000
252  3 0.0000  -5.386436 -2.359629  2.603867
253  3 0.0000 -10.830910 -4.744682  5.207734
254  3 0.0000 -16.275384 -7.129736  7.811601
255  3 0.0000 -21.719859 -9.514789 10.415468
256  3 0.0000   4.457695  4.795532 -0.000000
257  3 0.0000  -0.986779  2.410478  2.603867
258  3 0.0000  -6.431253  0.025425  5.207734
259  3 0.0000 -11.875727 -2.359629  7.811601
260  3 0.0000 -17.320202 -4.744682 10.415468
261  3 0.0000   8.857352  9.565639 -0.000000
262  3 0.0000   3.412878  7.180585  2.603867
263  3 0.0000  -2.031596  4.795532  5.207734
264  3 0.0000  -7.476070  2.410478  7.811601
265  3 0.0000 -12.920545  0.025425 10.415468
266  3 0.0000  13.257009 14.335746 -0.000000
267  3 0.0000   7.812535 11.950692  2.603867
268  3 0.0000   2.368061  9.565639  5.207734
269  3 0.0000  -3.076414  7.180585  7.811601
270  3 0.0000  -8.520888  4.795532 10.415468
271  3 0.0000  17.656666 19.105853 -0.000000
272  3 0.0000  12.212192 16.720799  2.603867
273  3 0.0000   6.767718 14.335746  5.207734
274  3 0.0000   1.323243 11.950692  7.811601
275  3 0.0000  -4.121231  9.565639 10.415468
276  3 0.0000   6.547329  0.025425 -0.000000
277  3 0.0000   1.102855 -2.359629  2.603867
278  3 0.0000  -4.341619 -4.744682  5.207734
279  3 0.0000  -9.786093 -7.129736  7.811601
280  3 0.0000 -15.230567 -9.514789 10.415468
281  3 0.0000  10.946986  4.795532 -0.000000
282  3 0.0000   5.502512  2.410478  2.603867
283  3 0.0000   0.058038  0.025425  5.207734
284  3 0.0000  -5.386436 -2.359629  7.811601
285  3 0.0000 -10.830910 -4.744682 10.415468
286  3 0.0000 -11.875727 -2.359629 13.019335
287  3 0.0000   9.902169  7.180585  2.603867
288  3 0.0000   4.457695  4.795532  5.207734
289  3 0.0000  -0.986779  2.410478  7.811601
290  3 0.0000  -6.431253  0.025425 10.415468
291  3 0.0000  19.746300 14.335746 -0.000000
292  3 0.0000  14.301826 11.950692  2.603867
293  3 0.0000   8.857352  9.565639  5.207734
294  3 0.0000   3.412878  7.180585  7.811601
295  3 0.0000  -2.031596  4.795532 10.415468
296  3 0.0000  24.145957 19.105853 -0.000000
297  3 0.0000  18.701483 16.720799  2.603867
298  3 0.0000  13.257009 14.335746  5.207734
299  3 0.0000   7.812535 11.950692  7.811601
300  3 0.0000   2.368061  9.565639 10.415468
301  3 0.0000  13.036621  0.025425 -0.000000
302  3 0.0000   7.592147 -2.359629  2.603867
303  3 0.0000   2.147672 -4.744682  5.207734
304  3 0.0000  -3.296802 -7.129736  7.811601
305  3 0.0000  -8.741276 -9.514789 10.415468
306  3 0.0000  -9.786093 -7.129736 13.019335
307  3 0.0000  11.991804  2.410478  2.603867
308  3 0.0000   6.547329  0.025425  5.207734
309  3 0.0000   1.102855 -2.359629  7.811601
310  3 0.0000  -4.341619 -4.744682 10.415468
311  3 0.0000  21.835935  9.565639 -0.000000
312  3 0.0000  16.391461  7.180585  2.603867
313  3 0.0000  10.946986  4.795532  5.207734
314  3 0.0000   5.502512  2.410478  7.811601
315  3 0.0000   0.058038  0.025425 10.415468
316  3 0.0000  26.235592 14.335746 -0.000000
317  3 0.0000  20.791118 11.950692  2.603867
318  3 0.0000  15.346643  9.565639  5.207734
319  3 0.0000   9.902169  7.180585  7.811601
320  3 0.0000   4.457695  4.795532 10.415468
321  3 0.0000  30.635249 19.105853 -0.000000
322  3 0.0000  25.190775 16.720799  2.603867
323  3 0.0000  19.746300 14.335746  5.207734
324  3 0.0000  14.301826 11.950692  7.811601
325  3 0.0000   8.857352  9.565639 10.415468
326  3 0.0000  19.525912  0.025425 -0.000000
327  3 0.0000  14.081438 -2.359629  2.603867
328  3 0.0000   8.636964 -4.744682  5.207734
329  3 0.0000   3.192490 -7.129736  7.811601
330  3 0.0000  -2.251984 -9.514789 10.415468
331  3 0.0000  23.925569  4.795532 -0.000000
332  3 0.0000  18.481095  2.410478  2.603867
333  3 0.0000  13.036621  0.025425  5.207734
334  3 0.0000   7.592147 -2.359629  7.811601
335  3 0.0000   2.147672 -4.744682 10.415468
336  3 0.0000  28.325226  9.565639 -0.000000
337  3 0.0000  22.880752  7.180585  2.603867
338  3 0.0000  17.436278  4.795532  5.207734
339  3 0.0000  11.991804  2.410478  7.811601
340  3 0.0000   6.547329  0.025425 10.415468
341  3 0.0000  32.724883 14.335746 -0.000000
342  3 0.0000  27.280409 11.950692  2.603867
343  3 0.0000  21.835935  9.565639  5.207734
344  3 0.0000  16.391461  7.180585  7.811601
345  3 0.0000  10.946986  4.795532 10.415468
346  3 0.0000  37.124540 19.105853 -0.000000
347  3 0.0000  31.680066 16.720799  2.603867
348  3 0.0000  26.235592 14.335746  5.207734
349  3 0.0000  20.791118 11.950692  7.811601
350  3 0.0000  15.346643  9.565639 10.415468
351  3 0.0000  26.015204  0.025425 -0.000000
352  3 0.0000  20.570729 -2.359629  2.603867
353  3 0.0000  15.126255 -4.744682  5.207734
354  3 0.0000   9.681781 -7.129736  7.811601
355  3 0.0000   4.237307 -9.514789 10.415468
356  3 0.0000   3.192490 -7.129736 13.019335
357  3 0.0000  24.970386  2.410478  2.603867
358  3 0.0000  19.525912  0.025425  5.207734
359  3 0.0000  14.081438 -2.359629  7.811601
360  3 0.0000   8.636964 -4.744682 10.415468
361  3 0.0000   7.592147 -2.359629 13.019335
362  3 0.0000  29.370043  7.180585  2.603867
363  3 0.0000  23.925569  4.795532  5.207734
364  3 0.0000  18.481095  2.410478  7.811601
365  3 0.0000  13.036621  0.025425 10.415468
366  3 0.0000  11.991804  2.410478 13.019335
367  3 0.0000  33.769700 11.950692  2.603867
368  3 0.0000  28.325226  9.565639  5.207734
369  3 0.0000  22.880752  7.180585  7.811601
370  3 0.0000  17.436278  4.795532 10.415468
371  3 0.0000  43.613832 19.105853 -0.000000
372  3 0.0000  38.169357 16.720799  2.603867
373  3 0.0000  32.724883 14.335746  5.207734
374  3 0.0000  27.280409 11.950692  7.811601
375  3 0.0000  21.835935  9.565639 10.415468
376  4 0.0000   9.067173  3.972044 -0.000000
377  4 0.0000   3.622699  1.586991  2.603867
378  4 0.0000  -1.821776 -0.798063  5.207734
379  4 0.0000  -7.266250 -3.183116  7.811601
380  4 0.0000 -12.710724 -5.568170 10.415468
381  4 0.0000  13.466830  8.742151 -0.000000
382  4 0.0000   8.022356  6.357098  2.603867
383  4 0.0000   2.577881  3.972044  5.207734
384  4 0.0000  -2.866593  1.586991  7.811601
385  4 0.0000  -8.311067 -0.798063 10.415468
386  4 0.0000  17.866487 13.512258 -0.000000
387  4 0.0000  12.422013 11.127205  2.603867
388  4 0.0000   6.977538  8.742151  5.207734
389  4 0.0000   1.533064  6.357098  7.811601
390  4 0.0000  -3.911410  3.972044 10.415468
391  4 0.0000  22.266144 18.282365 -0.000000
392  4 0.0000  16.821670 15.897312  2.603867
393  4 0.0000  11.377195 13.512258  5.207734
394  4 0.0000   5.932721 11.127205  7.811601
395  4 0.0000   0.488247  8.742151 10.415468
396  4 0.0000  26.665801 23.052472 -0.000000
397  4 0.0000  21.221327 20.667419  2.603867
398  4 0.0000  15.776852 18.282365  5.207734
399  4 0.0000  10.332378 15.897312  7.811601
400  4 0.0000   4.887904 13.512258 10.415468
401  4 0.0000  15.556464  3.972044 -0.000000
402  4 0.0000  10.111990  1.586991  2.603867
403  4 0.0000   4.667516 -0.798063  5.207734
404  4 0.0000  -0.776958 -3.183116  7.811601
405  4 0.0000  -6.221432 -5.568170 10.415468
406  4 0.0000  19.956121  8.742151 -0.000000
407  4 0.0000  14.511647  6.357098  2.603867
408  4 0.0000   9.067173  3.972044  5.207734
409  4 0.0000   3.622699  1.586991  7.811601
410  4 0.0000  -1.821776 -0.798063 10.415468
411  4 0.0000  24.355778 13.512258 -0.000000
412  4 0.0000  18.911304 11.127205  2.603867
413  4 0.0000  13.466830  8.742151  5.207734
414  4 0.0000   8.022356  6.357098  7.811601
415  4 0.0000   2.577881  3.972044 10.415468
416  4 0.0000  28.755435 18.282365 -0.000000
417  4 0.0000  23.310961 15.897312  2.603867
418  4 0.0000  17.866487 13.512258  5.207734
419  4 0.0000  12.422013 11.127205  7.811601
420  4 0.0000   6.977538  8.742151 10.415468
421  4 0.0000  33.155092 23.052472 -0.000000
422  4 0.0000  27.710618 20.667419  2.603867
423  4 0.0000  22.266144 18.282365  5.207734
424  4 0.0000  16.821670 15.897312  7.811601
425  4 0.0000  11.377195 13.512258 10.415468
426  4 0.0000  22.045756  3.972044 -0.000000
427  4 0.0000  16.601281  1.586991  2.603867
428  4 0.0000  11.156807 -0.798063  5.207734
429  4 0.0000   5.712333 -3.183116  7.811601
430  4 0.0000   0.267859 -5.568170 10.415468
431  4 0.0000  26.445413  8.742151 -0.000000
432  4 0.0000  21.000938  6.357098  2.603867
433  4 0.0000  15.556464  3.972044  5.207734
434  4 0.0000  10.111990  1.586991  7.811601
435  4 0.0000   4.667516 -0.798063 10.415468
436  4 0.0000  30.845070 13.512258 -0.000000
437  4 0.0000  25.400595 11.127205  2.603867
438  4 0.0000  19.956121  8.742151  5.207734
439  4 0.0000  14.511647  6.357098  7.811601
440  4 0.0000   9.067173  3.972044 10.415468
441  4 0.0000  35.244727 18.282365 -0.000000
442  4 0.0000  29.800252 15.897312  2.603867
443  4 0.0000  24.355778 13.512258  5.207734
444  4 0.0000  18.911304 11.127205  7.811601
445  4 0.0000  13.466830  8.742151 10.415468
446  4 0.0000  12.422013 11.127205 13.019335
447  4 0.0000  34.199909 20.667419  2.603867
448  4 0.0000  28.755435 18.282365  5.207734
449  4 0.0000  23.310961 15.897312  7.811601
450  4 0.0000  17.866487 13.512258 10.415468
451  4 0.0000  28.535047  3.972044 -0.000000
452  4 0.0000  23.090573  1.586991  2.603867
453  4 0.0000  17.646099 -0.798063  5.207734
454  4 0.0000  12.201624 -3.183116  7.811601
455  4 0.0000   6.757150 -5.568170 10.415468
456  4 0.0000  32.934704  8.742151 -0.000000
457  4 0.0000  27.490230  6.357098  2.603867
458  4 0.0000  22.045756  3.972044  5.207734
459  4 0.0000  16.601281  1.586991  7.811601
460  4 0.0000  11.156807 -0.798063 10.415468
461  4 0.0000  37.334361 13.512258 -0.000000
462  4 0.0000  31.889887 11.127205  2.603867
463  4 0.0000  26.445413  8.742151  5.207734
464  4 0.0000  21.000938  6.357098  7.811601
465  4 0.0000  15.556464  3.972044 10.415468
466  4 0.0000  14.511647  6.357098 13.019335
467  4 0.0000  36.289544 15.897312  2.603867
468  4 0.0000  30.845070 13.512258  5.207734
469  4 0.0000  25.400595 11.127205  7.811601
470  4 0.0000  19.956121  8.742151 10.415468
471  4 0.0000  46.133675 23.052472 -0.000000
472  4 0.0000  40.689201 20.667419  2.603867
473  4 0.0000  35.244727 18.282365  5.207734
474  4 0.0000  29.800252 15.897312  7.811601
475  4 0.0000  24.355778 13.512258 10.415468
476  4 0.0000   7.801967 -7.953223 13.019335
477  4 0.0000  29.579864  1.586991  2.603867
478  4 0.0000  24.135390 -0.798063  5.207734
479  4 0.0000  18.690916 -3.183116  7.811601
480  4 0.0000  13.246442 -5.568170 10.415468
481  4 0.0000  39.423995  8.742151 -0.000000
482  4 0.0000  33.979521  6.357098  2.603867
483  4 0.0000  28.535047  3.972044  5.207734
484  4 0.0000  23.090573  1.586991  7.811601
485  4 0.0000  17.646099 -0.798063 10.415468
486  4 0.0000  16.601281  1.586991 13.019335
487  4 0.0000  38.379178 11.127205  2.603867
488  4 0.0000  32.934704  8.742151  5.207734
489  4 0.0000  27.490230  6.357098  7.811601
490  4 0.0000  22.045756  3.972044 10.415468
491  4 0.0000  48.223309 18.282365 -0.000000
492  4 0.0000  42.778835 15.897312  2.603867
493  4 0.0000  37.334361 13.512258  5.207734
494  4 0.0000  31.889887 11.127205  7.811601
495  4 0.0000  26.445413  8.742151 10.415468
496  4 0.0000  25.400595 11.127205 13.019335
497  4 0.0000  47.178492 20.667419  2.603867
498  4 0.0000  41.734018 18.282365  5.207734
499  4 0.0000  36.289544 15.897312  7.811601
500  4 0.0000  30.845070 13.512258 10.415468
501  4 0.0000   1.853168  0.811815 -0.000000
502  4 0.0000  -3.591306 -1.573239  2.603867
503  4 0.0000  -9.035780 -3.958292  5.207734
504  4 0.0000 -14.480254 -6.343346  7.811601
505  4 0.0000 -19.924728 -8.728399 10.415468
506  4 0.0000   6.252825  5.581922 -0.000000
507  4 0.0000   0.808351  3.196868  2.603867
508  4 0.0000  -4.636123  0.811815  5.207734
509  4 0.0000 -10.080597 -1.573239  7.811601
510  4 0.0000 -15.525071 -3.958292 10.415468
511  4 0.0000  10.652482 10.352029 -0.000000
512  4 0.0000   5.208008  7.966976  2.603867
513  4 0.0000  -0.236466  5.581922  5.207734
514  4 0.0000  -5.680940  3.196868  7.811601
515  4 0.0000 -11.125414  0.811815 10.415468
516  4 0.0000  15.052139 15.122136 -0.000000
517  4 0.0000   9.607665 12.737083  2.603867
518  4 0.0000   4.163191 10.352029  5.207734
519  4 0.0000  -1.281283  7.966976  7.811601
520  4 0.0000  -6.725757  5.581922 10.415468
521  4 0.0000  19.451796 19.892243 -0.000000
522  4 0.0000  14.007322 17.507190  2.603867
523  4 0.0000   8.562848 15.122136  5.207734
524  4 0.0000   3.118374 12.737083  7.811601
525  4 0.0000  -2.326100 10.352029 10.415468
526  4 0.0000   8.342460  0.811815 -0.000000
527  4 0.0000   2.897986 -1.573239  2.603867
528  4 0.0000  -2.546489 -3.958292  5.207734
529  4 0.0000  -7.990963 -6.343346  7.811601
530  4 0.0000 -13.435437 -8.728399 10.415468
531  4 0.0000  12.742117  5.581922 -0.000000
532  4 0.0000   7.297643  3.196868  2.603867
533  4 0.0000   1.853168  0.811815  5.207734
534  4 0.0000  -3.591306 -1.573239  7.811601
535  4 0.0000  -9.035780 -3.958292 10.415468
536  4 0.0000  17.141774 10.352029 -0.000000
537  4 0.0000  11.697300  7.966976  2.603867
538  4 0.0000   6.252825  5.581922  5.207734
539  4 0.0000   0.808351  3.196868  7.811601
540  4 0.0000  -4.636123  0.811815 10.415468
541  4 0.0000  21.541431 15.122136 -0.000000
542  4 0.0000  16.096956 12.737083  2.603867
543  4 0.0000  10.652482 10.352029  5.207734
544  4 0.0000   5.208008  7.966976  7.811601
545  4 0.0000  -0.236466  5.581922 10.415468
546  4 0.0000  25.941088 19.892243 -0.000000
547  4 0.0000  20.496613 17.507190  2.603867
548  4 0.0000  15.052139 15.122136  5.207734
549  4 0.0000   9.607665 12.737083  7.811601
550  4 0.0000   4.163191 10.352029 10.415468
551  4 0.0000  14.831751  0.811815 -0.000000
552  4 0.0000   9.387277 -1.573239  2.603867
553  4 0.0000   3.942803 -3.958292  5.207734
554  4 0.0000  -1.501671 -6.343346  7.811601
555  4 0.0000  -6.946146 -8.728399 10.415468
556  4 0.0000  19.231408  5.581922 -0.000000
557  4 0.0000  13.786934  3.196868  2.603867
558  4 0.0000   8.342460  0.811815  5.207734
559  4 0.0000   2.897986 -1.573239  7.811601
560  4 0.0000  -2.546489 -3.958292 10.415468
561  4 0.0000  23.631065 10.352029 -0.000000
562  4 0.0000  18.186591  7.966976  2.603867
563  4 0.0000  12.742117  5.581922  5.207734
564  4 0.0000   7.297643  3.196868  7.811601
565  4 0.0000   1.853168  0.811815 10.415468
566  4 0.0000  28.030722 15.122136 -0.000000
567  4 0.0000  22.586248 12.737083  2.603867
568  4 0.0000  17.141774 10.352029  5.207734
569  4 0.0000  11.697300  7.966976  7.811601
570  4 0.0000   6.252825  5.581922 10.415468
571  4 0.0000   5.208008  7.966976 13.019335
572  4 0.0000  26.985905 17.507190  2.603867
573  4 0.0000  21.541431 15.122136  5.207734
574  4 0.0000  16.096956 12.737083  7.811601
575  4 0.0000  10.652482 10.352029 10.415468
576  4 0.0000  21.321042  0.811815 -0.000000
577  4 0.0000  15.876568 -1.573239  2.603867
578  4 0.0000  10.432094 -3.958292  5.207734
579  4 0.0000   4.987620 -6.343346  7.811601
580  4 0.0000  -0.456854 -8.728399 10.415468
581  4 0.0000  25.720699  5.581922 -0.000000
582  4 0.0000  20.276225  3.196868  2.603867
583  4 0.0000  14.831751  0.811815  5.207734
584  4 0.0000   9.387277 -1.573239  7.811601
585  4 0.0000   3.942803 -3.958292 10.415468
586  4 0.0000  30.120356 10.352029 -0.000000
587  4 0.0000  24.675882  7.966976  2.603867
588  4 0.0000  19.231408  5.581922  5.207734
589  4 0.0000  13.786934  3.196868  7.811601
590  4 0.0000   8.342460  0.811815 10.415468
591  4 0.0000   7.297643  3.196868 13.019335
592  4 0.0000  29.075539 12.737083  2.603867
593  4 0.0000  23.631065 10.352029  5.207734
594  4 0.0000  18.186591  7.966976  7.811601
595  4 0.0000  12.742117  5.581922 10.415468
596  4 0.0000  38.919670 19.892243 -0.000000
597  4 0.0000  33.475196 17.507190  2.603867
598  4 0.0000  28.030722 15.122136  5.207734
599  4 0.0000  22.586248 12.737083  7.811601
600  4 0.0000  17.141774 10.352029 10.415468
601  4 0.0000  27.810334  0.811815 -0.000000
602  4 0.0000  22.365860 -1.573239  2.603867
603  4 0.0000  16.921386 -3.958292  5.207734
604  4 0.0000  11.476911 -6.343346  7.811601
605  4 0.0000   6.032437 -8.728399 10.415468
606  4 0.0000  32.209991  5.581922 -0.000000
607  4 0.0000  26.765517  3.196868  2.603867
608  4 0.0000  21.321042  0.811815  5.207734
609  4 0.0000  15.876568 -1.573239  7.811601
610  4 0.0000  10.432094 -3.958292 10.415468
611  4 0.0000   9.387277 -1.573239 13.019335
612  4 0.0000  31.165174  7.966976  2.603867
613  4 0.0000  25.720699  5.581922  5.207734
614  4 0.0000  20.276225  3.196868  7.811601
615  4 0.0000  14.831751  0.811815 10.415468
616  4 0.0000  13.786934  3.196868 13.019335
617  4 0.0000  35.564831 12.737083  2.603867
618  4 0.0000  30.120356 10.352029  5.207734
619  4 0.0000  24.675882  7.966976  7.811601
620  4 0.0000  19.231408  5.581922 10.415468
621  4 0.0000  18.186591  7.966976 13.019335
622  4 0.0000  39.964488 17.507190  2.603867
623  4 0.0000  34.520013 15.122136  5.207734
624  4 0.0000  29.075539 12.737083  7.811601
625  4 0.0000  23.631065 10.352029 10.415468
626  4 0.0000   5.909269  1.167288  1.301933
627  4 0.0000   0.464795 -1.217765  3.905800
628  4 0.0000  -4.979679 -3.602819  6.509667
629  4 0.0000 -10.424153 -5.987872  9.113534
630  4 0.0000 -15.868627 -8.372926 11.717401
631  4 0.0000  10.308926  5.937395  1.301933
632  4 0.0000   4.864452  3.552342  3.905800
633  4 0.0000  -0.580022  1.167288  6.509667
634  4 0.0000  -6.024496 -1.217765  9.113534
635  4 0.0000 -11.468970 -3.602819 11.717401
636  4 0.0000  14.708583 10.707502  1.301933
637  4 0.0000   9.264109  8.322449  3.905800
638  4 0.0000   3.819635  5.937395  6.509667
639  4 0.0000  -1.624839  3.552342  9.113534
640  4 0.0000  -7.069313  1.167288 11.717401
641  4 0.0000  19.108240 15.477609  1.301933
642  4 0.0000  13.663766 13.092556  3.905800
643  4 0.0000   8.219292 10.707502  6.509667
644  4 0.0000   2.774818  8.322449  9.113534
645  4 0.0000  -2.669656  5.937395 11.717401
646  4 0.0000  23.507897 20.247716  1.301933
647  4 0.0000  18.063423 17.862663  3.905800
648  4 0.0000  12.618949 15.477609  6.509667
649  4 0.0000   7.174475 13.092556  9.113534
650  4 0.0000   1.730001 10.707502 11.717401
651  4 0.0000  12.398561  1.167288  1.301933
652  4 0.0000   6.954087 -1.217765  3.905800
653  4 0.0000   1.509612 -3.602819  6.509667
654  4 0.0000  -3.934862 -5.987872  9.113534
655  4 0.0000  -9.379336 -8.372926 11.717401
656  4 0.0000  16.798218  5.937395  1.301933
657  4 0.0000  11.353744  3.552342  3.905800
658  4 0.0000   5.909269  1.167288  6.509667
659  4 0.0000   0.464795 -1.217765  9.113534
660  4 0.0000  -4.979679 -3.602819 11.717401
661  4 0.0000  21.197875 10.707502  1.301933
662  4 0.0000  15.753401  8.322449  3.905800
663  4 0.0000  10.308926  5.937395  6.509667
664  4 0.0000   4.864452  3.552342  9.113534
665  4 0.0000  -0.580022  1.167288 11.717401
666  4 0.0000  25.597532 15.477609  1.301933
667  4 0.0000  20.153057 13.092556  3.905800
668  4 0.0000  14.708583 10.707502  6.509667
669  4 0.0000   9.264109  8.322449  9.113534
670  4 0.0000   3.819635  5.937395 11.717401
671  4 0.0000  29.997189 20.247716  1.301933
672  4 0.0000  24.552714 17.862663  3.905800
673  4 0.0000  19.108240 15.477609  6.509667
674  4 0.0000  13.663766 13.092556  9.113534
675  4 0.0000   8.219292 10.707502 11.717401
676  4 0.0000  18.887852  1.167288  1.301933
677  4 0.0000  13.443378 -1.217765  3.905800
678  4 0.0000   7.998904 -3.602819  6.509667
679  4 0.0000   2.554430 -5.987872  9.113534
680  4 0.0000  -2.890045 -8.372926 11.717401
681  4 0.0000  23.287509  5.937395  1.301933
682  4 0.0000  17.843035  3.552342  3.905800
683  4 0.0000  12.398561  1.167288  6.509667
684  4 0.0000   6.954087 -1.217765  9.113534
685  4 0.0000   1.509612 -3.602819 11.717401
686  4 0.0000  27.687166 10.707502  1.301933
687  4 0.0000  22.242692  8.322449  3.905800
688  4 0.0000  16.798218  5.937395  6.509667
689  4 0.0000  11.353744  3.552342  9.113534
690  4 0.0000   5.909269  1.167288 11.717401
691  4 0.0000  32.086823 15.477609  1.301933
692  4 0.0000  26.642349 13.092556  3.905800
693  4 0.0000  21.197875 10.707502  6.509667
694  4 0.0000  15.753401  8.322449  9.113534
695  4 0.0000  10.308926  5.937395 11.717401
696  4 0.0000  36.486480 20.247716  1.301933
697  4 0.0000  31.042006 17.862663  3.905800
698  4 0.0000  25.597532 15.477609  6.509667
699  4 0.0000  20.153057 13.092556  9.113534
700  4 0.0000  14.708583 10.707502 11.717401
701  4 0.0000  25.377143  1.167288  1.301933
702  4 0.0000  19.932669 -1.217765  3.905800
703  4 0.0000  14.488195 -3.602819  6.509667
704  4 0.0000   9.043721 -5.987872  9.113534
705  4 0.0000   3.599247 -8.372926 11.717401
706  4 0.0000  29.776800  5.937395  1.301933
707  4 0.0000  24.332326  3.552342  3.905800
708  4 0.0000  18.887852  1.167288  6.509667
709  4 0.0000  13.443378 -1.217765  9.113534
710  4 0.0000   7.998904 -3.602819 11.717401
711  4 0.0000  34.176457 10.707502  1.301933
712  4 0.0000  28.731983  8.322449  3.905800
713  4 0.0000  23.287509  5.937395  6.509667
714  4 0.0000  17.843035  3.552342  9.113534
715  4 0.0000  12.398561  1.167288 11.717401
716  4 0.0000  38.576114 15.477609  1.301933
717  4 0.0000  33.131640 13.092556  3.905800
718  4 0.0000  27.687166 10.707502  6.509667
719  4 0.0000  22.242692  8.322449  9.113534
720  4 0.0000  16.798218  5.937395 11.717401
721  4 0.0000  42.975771 20.247716  1.301933
722  4 0.0000  37.531297 17.862663  3.905800
723  4 0.0000  32.086823 15.477609  6.509667
724  4 0.0000  26.642349 13.092556  9.113534
725  4 0.0000  21.197875 10.707502 11.717401
726  4 0.0000  31.866435  1.167288  1.301933
727  4 0.0000  26.421961 -1.217765  3.905800
728  4 0.0000  20.977487 -3.602819  6.509667
729  4 0.0000  15.533012 -5.987872  9.113534
730  4 0.0000  10.088538 -8.372926 11.717401
731  4 0.0000  36.266092  5.937395  1.301933
732  4 0.0000  30.821618  3.552342  3.905800
733  4 0.0000  25.377143  1.167288  6.509667
734  4 0.0000  19.932669 -1.217765  9.113534
735  4 0.0000  14.488195 -3.602819 11.717401
736  4 0.0000  40.665749 10.707502  1.301933
737  4 0.0000  35.221275  8.322449  3.905800
738  4 0.0000  29.776800  5.937395  6.509667
739  4 0.0000  24.332326  3.552342  9.113534
740  4 0.0000  18.887852  1.167288 11.717401
741  4 0.0000  45.065406 15.477609  1.301933
742  4 0.0000  39.620932 13.092556  3.905800
743  4 0.0000  34.176457 10.707502  6.509667
744  4 0.0000  28.731983  8.322449  9.113534
745  4 0.0000  23.287509  5.937395 11.717401
746  4 0.0000  49.465063 20.247716  1.301933
747  4 0.0000  44.020589 17.862663  3.905800
748  4 0.0000  38.576114 15.477609  6.509667
749  4 0.0000  33.131640 13.092556  9.113534
750  4 0.0000  27.687166 10.707502 11.717401
751  4 0.0000   4.864452  3.552342  1.301933
752  4 0.0000  -0.580022  1.167288  3.905800
753  4 0.0000  -6.024496 -1.217765  6.509667
754  4 0.0000 -11.468970 -3.602819  9.113534
755  4 0.0000 -16.913445 -5.987872 11.717401
756  4 0.0000   9.264109  8.322449  1.301933
757  4 0.0000   3.819635  5.937395  3.905800
758  4 0.0000  -1.624839  3.552342  6.509667
759  4 0.0000  -7.069313  1.167288  9.113534
760  4 0.0000 -12.513788 -1.217765 11.717401
761  4 0.0000  13.663766 13.092556  1.301933
762  4 0.0000   8.219292 10.707502  3.905800
763  4 0.0000   2.774818  8.322449  6.509667
764  4 0.0000  -2.669656  5.937395  9.113534
765  4 0.0000  -8.114131  3.552342 11.717401
766  4 0.0000  18.063423 17.862663  1.301933
767  4 0.0000  12.618949 15.477609  3.905800
768  4 0.0000   7.174475 13.092556  6.509667
769  4 0.0000   1.730001 10.707502  9.113534
770  4 0.0000  -3.714474  8.322449 11.717401
771  4 0.0000  22.463080 22.632770  1.301933
772  4 0.0000  17.018606 20.247716  3.905800
773  4 0.0000  11.574132 17.862663  6.509667
774  4 0.0000   6.129658 15.477609  9.113534
775  4 0.0000   0.685183 13.092556 11.717401
776  4 0.0000  11.353744  3.552342  1.301933
777  4 0.0000   5.909269  1.167288  3.905800
778  4 0.0000   0.464795 -1.217765  6.509667
779  4 0.0000  -4.979679 -3.602819  9.113534
780  4 0.0000 -10.424153 -5.987872 11.717401
781  4 0.0000  15.753401  8.322449  1.301933
782  4 0.0000  10.308926  5.937395  3.905800
783  4 0.0000   4.864452  3.552342  6.509667
784  4 0.0000  -0.580022  1.167288  9.113534
785  4 0.0000  -6.024496 -1.217765 11.717401
786  4 0.0000  20.153057 13.092556  1.301933
787  4 0.0000  14.708583 10.707502  3.905800
788  4 0.0000   9.264109  8.322449  6.509667
789  4 0.0000   3.819635  5.937395  9.113534
790  4 0.0000  -1.624839  3.552342 11.717401
791  4 0.0000  24.552714 17.862663  1.301933
792  4 0.0000  19.108240 15.477609  3.905800
793  4 0.0000  13.663766 13.092556  6.509667
794  4 0.0000   8.219292 10.707502  9.113534
795  4 0.0000   2.774818  8.322449 11.717401
796  4 0.0000  28.952371 22.632770  1.301933
797  4 0.0000  23.507897 20.247716  3.905800
798  4 0.0000  18.063423 17.862663  6.509667
799  4 0.0000  12.618949 15.477609  9.113534
800  4 0.0000   7.174475 13.092556 11.717401
801  4 0.0000  17.843035  3.552342  1.301933
802  4 0.0000  12.398561  1.167288  3.905800
803  4 0.0000   6.954087 -1.217765  6.509667
804  4 0.0000   1.509612 -3.602819  9.113534
805  4 0.0000  -3.934862 -5.987872 11.717401
806  4 0.0000  22.242692  8.322449  1.301933
807  4 0.0000  16.798218  5.937395  3.905800
808  4 0.0000  11.353744  3.552342  6.509667
809  4 0.0000   5.909269  1.167288  9.113534
810  4 0.0000   0.464795 -1.217765 11.717401
811  4 0.0000  26.642349 13.092556  1.301933
812  4 0.0000  21.197875 10.707502  3.905800
813  4 0.0000  15.753401  8.322449  6.509667
814  4 0.0000  10.308926  5.937395  9.113534
815  4 0.0000   4.864452  3.552342 11.717401
816  4 0.0000  31.042006 17.862663  1.301933
817  4 0.0000  25.597532 15.477609  3.905800
818  4 0.0000  20.153057 13.092556  6.509667
819  4 0.0000  14.708583 10.707502  9.113534
820  4 0.0000   9.264109  8.322449 11.717401
821  4 0.0000  35.441663 22.632770  1.301933
822  4 0.0000  29.997189 20.247716  3.905800
823  4 0.0000  24.552714 17.862663  6.509667
824  4 0.0000  19.108240 15.477609  9.113534
825  4 0.0000  13.663766 13.092556 11.717401
826  4 0.0000  24.332326  3.552342  1.301933
827  4 0.0000  18.887852  1.167288  3.905800
828  4 0.0000  13.443378 -1.217765  6.509667
829  4 0.0000   7.998904 -3.602819  9.113534
830  4 0.0000   2.554430 -5.987872 11.717401
831  4 0.0000  28.731983  8.322449  1.301933
832  4 0.0000  23.287509  5.937395  3.905800
833  4 0.0000  17.843035  3.552342  6.509667
834  4 0.0000  12.398561  1.167288  9.113534
835  4 0.0000   6.954087 -1.217765 11.717401
836  4 0.0000  33.131640 13.092556  1.301933
837  4 0.0000  27.687166 10.707502  3.905800
838  4 0.0000  22.242692  8.322449  6.509667
839  4 0.0000  16.798218  5.937395  9.113534
840  4 0.0000  11.353744  3.552342 11.717401
841  4 0.0000  37.531297 17.862663  1.301933
842  4 0.0000  32.086823 15.477609  3.905800
843  4 0.0000  26.642349 13.092556  6.509667
844  4 0.0000  21.197875 10.707502  9.113534
845  4 0.0000  15.753401  8.322449 11.717401
846  4 0.0000  41.930954 22.632770  1.301933
847  4 0.0000  36.486480 20.247716  3.905800
848  4 0.0000  31.042006 17.862663  6.509667
849  4 0.0000  25.597532 15.477609  9.113534
850  4 0.0000  20.153057 13.092556 11.717401
851  4 0.0000  30.821618  3.552342  1.301933
852  4 0.0000  25.377143  1.167288  3.905800
853  4 0.0000  19.932669 -1.217765  6.509667
854  4 0.0000  14.488195 -3.602819  9.113534
855  4 0.0000   9.043721 -5.987872 11.717401
856  4 0.0000  35.221275  8.322449  1.301933
857  4 0.0000  29.776800  5.937395  3.905800
858  4 0.0000  24.332326  3.552342  6.509667
859  4 0.0000  18.887852  1.167288  9.113534
860  4 0.0000  13.443378 -1.217765 11.717401
861  4 0.0000  39.620932 13.092556  1.301933
862  4 0.0000  34.176457 10.707502  3.905800
863  4 0.0000  28.731983  8.322449  6.509667
864  4 0.0000  23.287509  5.937395  9.113534
865  4 0.0000  17.843035  3.552342 11.717401
866  4 0.0000  44.020589 17.862663  1.301933
867  4 0.0000  38.576114 15.477609  3.905800
868  4 0.0000  33.131640 13.092556  6.509667
869  4 0.0000  27.687166 10.707502  9.113534
870  4 0.0000  22.242692  8.322449 11.717401
871  4 0.0000  48.420246 22.632770  1.301933
872  4 0.0000  42.975771 20.247716  3.905800
873  4 0.0000  37.531297 17.862663  6.509667
874  4 0.0000  32.086823 15.477609  9.113534
875  4 0.0000  26.642349 13.092556 11.717401

