Generated by pymatgen.io.lammps.data.LammpsData

1000  atoms

   2  atom types

0.000000 23.609928  xlo xhi
0.000000 23.609928  ylo yhi
0.000000 23.609928  zlo zhi

Masses

1  112.4110
2   15.9994

Atoms

1     1 0.0000  0.000000  0.000000  0.000000
2     1 0.0000  0.000000  0.000000  4.721986
3     1 0.0000  0.000000  0.000000  9.443971
4     1 0.0000  0.000000  0.000000 14.165957
5     1 0.0000  0.000000  0.000000 18.887942
6     1 0.0000  0.000000  4.721986  0.000000
7     1 0.0000  0.000000  4.721986  4.721986
8     1 0.0000  0.000000  4.721986  9.443971
9     1 0.0000  0.000000  4.721986 14.165957
10    1 0.0000  0.000000  4.721986 18.887942
11    1 0.0000  0.000000  9.443971  0.000000
12    1 0.0000  0.000000  9.443971  4.721986
13    1 0.0000  0.000000  9.443971  9.443971
14    1 0.0000  0.000000  9.443971 14.165957
15    1 0.0000  0.000000  9.443971 18.887942
16    1 0.0000  0.000000 14.165957  0.000000
17    1 0.0000  0.000000 14.165957  4.721986
18    1 0.0000  0.000000 14.165957  9.443971
19    1 0.0000  0.000000 14.165957 14.165957
20    1 0.0000  0.000000 14.165957 18.887942
21    1 0.0000  0.000000 18.887942  0.000000
22    1 0.0000  0.000000 18.887942  4.721986
23    1 0.0000  0.000000 18.887942  9.443971
24    1 0.0000  0.000000 18.887942 14.165957
25    1 0.0000  0.000000 18.887942 18.887942
26    1 0.0000  4.721986 -0.000000  0.000000
27    1 0.0000  4.721986  0.000000  4.721986
28    1 0.0000  4.721986  0.000000  9.443971
29    1 0.0000  4.721986  0.000000 14.165957
30    1 0.0000  4.721986  0.000000 18.887942
31    1 0.0000  4.721986  4.721986  0.000000
32    1 0.0000  4.721986  4.721986  4.721986
33    1 0.0000  4.721986  4.721986  9.443971
34    1 0.0000  4.721986  4.721986 14.165957
35    1 0.0000  4.721986  4.721986 18.887942
36    1 0.0000  4.721986  9.443971  0.000000
37    1 0.0000  4.721986  9.443971  4.721986
38    1 0.0000  4.721986  9.443971  9.443971
39    1 0.0000  4.721986  9.443971 14.165957
40    1 0.0000  4.721986  9.443971 18.887942
41    1 0.0000  4.721986 14.165957  0.000000
42    1 0.0000  4.721986 14.165957  4.721986
43    1 0.0000  4.721986 14.165957  9.443971
44    1 0.0000  4.721986 14.165957 14.165957
45    1 0.0000  4.721986 14.165957 18.887942
46    1 0.0000  4.721986 18.887942  0.000000
47    1 0.0000  4.721986 18.887942  4.721986
48    1 0.0000  4.721986 18.887942  9.443971
49    1 0.0000  4.721986 18.887942 14.165957
50    1 0.0000  4.721986 18.887942 18.887942
51    1 0.0000  9.443971 -0.000000  0.000000
52    1 0.0000  9.443971  0.000000  4.721986
53    1 0.0000  9.443971  0.000000  9.443971
54    1 0.0000  9.443971  0.000000 14.165957
55    1 0.0000  9.443971  0.000000 18.887942
56    1 0.0000  9.443971  4.721986  0.000000
57    1 0.0000  9.443971  4.721986  4.721986
58    1 0.0000  9.443971  4.721986  9.443971
59    1 0.0000  9.443971  4.721986 14.165957
60    1 0.0000  9.443971  4.721986 18.887942
61    1 0.0000  9.443971  9.443971  0.000000
62    1 0.0000  9.443971  9.443971  4.721986
63    1 0.0000  9.443971  9.443971  9.443971
64    1 0.0000  9.443971  9.443971 14.165957
65    1 0.0000  9.443971  9.443971 18.887942
66    1 0.0000  9.443971 14.165957  0.000000
67    1 0.0000  9.443971 14.165957  4.721986
68    1 0.0000  9.443971 14.165957  9.443971
69    1 0.0000  9.443971 14.165957 14.165957
70    1 0.0000  9.443971 14.165957 18.887942
71    1 0.0000  9.443971 18.887942  0.000000
72    1 0.0000  9.443971 18.887942  4.721986
73    1 0.0000  9.443971 18.887942  9.443971
74    1 0.0000  9.443971 18.887942 14.165957
75    1 0.0000  9.443971 18.887942 18.887942
76    1 0.0000 14.165957 -0.000000  0.000000
77    1 0.0000 14.165957  0.000000  4.721986
78    1 0.0000 14.165957  0.000000  9.443971
79    1 0.0000 14.165957  0.000000 14.165957
80    1 0.0000 14.165957  0.000000 18.887942
81    1 0.0000 14.165957  4.721986  0.000000
82    1 0.0000 14.165957  4.721986  4.721986
83    1 0.0000 14.165957  4.721986  9.443971
84    1 0.0000 14.165957  4.721986 14.165957
85    1 0.0000 14.165957  4.721986 18.887942
86    1 0.0000 14.165957  9.443971  0.000000
87    1 0.0000 14.165957  9.443971  4.721986
88    1 0.0000 14.165957  9.443971  9.443971
89    1 0.0000 14.165957  9.443971 14.165957
90    1 0.0000 14.165957  9.443971 18.887942
91    1 0.0000 14.165957 14.165957  0.000000
92    1 0.0000 14.165957 14.165957  4.721986
93    1 0.0000 14.165957 14.165957  9.443971
94    1 0.0000 14.165957 14.165957 14.165957
95    1 0.0000 14.165957 14.165957 18.887942
96    1 0.0000 14.165957 18.887942  0.000000
97    1 0.0000 14.165957 18.887942  4.721986
98    1 0.0000 14.165957 18.887942  9.443971
99    1 0.0000 14.165957 18.887942 14.165957
100   1 0.0000 14.165957 18.887942 18.887942
101   1 0.0000 18.887942 -0.000000  0.000000
102   1 0.0000 18.887942  0.000000  4.721986
103   1 0.0000 18.887942  0.000000  9.443971
104   1 0.0000 18.887942  0.000000 14.165957
105   1 0.0000 18.887942  0.000000 18.887942
106   1 0.0000 18.887942  4.721986  0.000000
107   1 0.0000 18.887942  4.721986  4.721986
108   1 0.0000 18.887942  4.721986  9.443971
109   1 0.0000 18.887942  4.721986 14.165957
110   1 0.0000 18.887942  4.721986 18.887942
111   1 0.0000 18.887942  9.443971  0.000000
112   1 0.0000 18.887942  9.443971  4.721986
113   1 0.0000 18.887942  9.443971  9.443971
114   1 0.0000 18.887942  9.443971 14.165957
115   1 0.0000 18.887942  9.443971 18.887942
116   1 0.0000 18.887942 14.165957  0.000000
117   1 0.0000 18.887942 14.165957  4.721986
118   1 0.0000 18.887942 14.165957  9.443971
119   1 0.0000 18.887942 14.165957 14.165957
120   1 0.0000 18.887942 14.165957 18.887942
121   1 0.0000 18.887942 18.887942  0.000000
122   1 0.0000 18.887942 18.887942  4.721986
123   1 0.0000 18.887942 18.887942  9.443971
124   1 0.0000 18.887942 18.887942 14.165957
125   1 0.0000 18.887942 18.887942 18.887942
126   1 0.0000  0.000000  2.360993  2.360993
127   1 0.0000  0.000000  2.360993  7.082978
128   1 0.0000  0.000000  2.360993 11.804964
129   1 0.0000  0.000000  2.360993 16.526949
130   1 0.0000  0.000000  2.360993 21.248935
131   1 0.0000  0.000000  7.082978  2.360993
132   1 0.0000  0.000000  7.082978  7.082978
133   1 0.0000  0.000000  7.082978 11.804964
134   1 0.0000  0.000000  7.082978 16.526949
135   1 0.0000  0.000000  7.082978 21.248935
136   1 0.0000  0.000000 11.804964  2.360993
137   1 0.0000  0.000000 11.804964  7.082978
138   1 0.0000  0.000000 11.804964 11.804964
139   1 0.0000  0.000000 11.804964 16.526949
140   1 0.0000  0.000000 11.804964 21.248935
141   1 0.0000  0.000000 16.526949  2.360993
142   1 0.0000  0.000000 16.526949  7.082978
143   1 0.0000  0.000000 16.526949 11.804964
144   1 0.0000  0.000000 16.526949 16.526949
145   1 0.0000  0.000000 16.526949 21.248935
146   1 0.0000  0.000000 21.248935  2.360993
147   1 0.0000  0.000000 21.248935  7.082978
148   1 0.0000  0.000000 21.248935 11.804964
149   1 0.0000  0.000000 21.248935 16.526949
150   1 0.0000  0.000000 21.248935 21.248935
151   1 0.0000  4.721986  2.360993  2.360993
152   1 0.0000  4.721986  2.360993  7.082978
153   1 0.0000  4.721986  2.360993 11.804964
154   1 0.0000  4.721986  2.360993 16.526949
155   1 0.0000  4.721986  2.360993 21.248935
156   1 0.0000  4.721986  7.082978  2.360993
157   1 0.0000  4.721986  7.082978  7.082978
158   1 0.0000  4.721986  7.082978 11.804964
159   1 0.0000  4.721986  7.082978 16.526949
160   1 0.0000  4.721986  7.082978 21.248935
161   1 0.0000  4.721986 11.804964  2.360993
162   1 0.0000  4.721986 11.804964  7.082978
163   1 0.0000  4.721986 11.804964 11.804964
164   1 0.0000  4.721986 11.804964 16.526949
165   1 0.0000  4.721986 11.804964 21.248935
166   1 0.0000  4.721986 16.526949  2.360993
167   1 0.0000  4.721986 16.526949  7.082978
168   1 0.0000  4.721986 16.526949 11.804964
169   1 0.0000  4.721986 16.526949 16.526949
170   1 0.0000  4.721986 16.526949 21.248935
171   1 0.0000  4.721986 21.248935  2.360993
172   1 0.0000  4.721986 21.248935  7.082978
173   1 0.0000  4.721986 21.248935 11.804964
174   1 0.0000  4.721986 21.248935 16.526949
175   1 0.0000  4.721986 21.248935 21.248935
176   1 0.0000  9.443971  2.360993  2.360993
177   1 0.0000  9.443971  2.360993  7.082978
178   1 0.0000  9.443971  2.360993 11.804964
179   1 0.0000  9.443971  2.360993 16.526949
180   1 0.0000  9.443971  2.360993 21.248935
181   1 0.0000  9.443971  7.082978  2.360993
182   1 0.0000  9.443971  7.082978  7.082978
183   1 0.0000  9.443971  7.082978 11.804964
184   1 0.0000  9.443971  7.082978 16.526949
185   1 0.0000  9.443971  7.082978 21.248935
186   1 0.0000  9.443971 11.804964  2.360993
187   1 0.0000  9.443971 11.804964  7.082978
188   1 0.0000  9.443971 11.804964 11.804964
189   1 0.0000  9.443971 11.804964 16.526949
190   1 0.0000  9.443971 11.804964 21.248935
191   1 0.0000  9.443971 16.526949  2.360993
192   1 0.0000  9.443971 16.526949  7.082978
193   1 0.0000  9.443971 16.526949 11.804964
194   1 0.0000  9.443971 16.526949 16.526949
195   1 0.0000  9.443971 16.526949 21.248935
196   1 0.0000  9.443971 21.248935  2.360993
197   1 0.0000  9.443971 21.248935  7.082978
198   1 0.0000  9.443971 21.248935 11.804964
199   1 0.0000  9.443971 21.248935 16.526949
200   1 0.0000  9.443971 21.248935 21.248935
201   1 0.0000 14.165957  2.360993  2.360993
202   1 0.0000 14.165957  2.360993  7.082978
203   1 0.0000 14.165957  2.360993 11.804964
204   1 0.0000 14.165957  2.360993 16.526949
205   1 0.0000 14.165957  2.360993 21.248935
206   1 0.0000 14.165957  7.082978  2.360993
207   1 0.0000 14.165957  7.082978  7.082978
208   1 0.0000 14.165957  7.082978 11.804964
209   1 0.0000 14.165957  7.082978 16.526949
210   1 0.0000 14.165957  7.082978 21.248935
211   1 0.0000 14.165957 11.804964  2.360993
212   1 0.0000 14.165957 11.804964  7.082978
213   1 0.0000 14.165957 11.804964 11.804964
214   1 0.0000 14.165957 11.804964 16.526949
215   1 0.0000 14.165957 11.804964 21.248935
216   1 0.0000 14.165957 16.526949  2.360993
217   1 0.0000 14.165957 16.526949  7.082978
218   1 0.0000 14.165957 16.526949 11.804964
219   1 0.0000 14.165957 16.526949 16.526949
220   1 0.0000 14.165957 16.526949 21.248935
221   1 0.0000 14.165957 21.248935  2.360993
222   1 0.0000 14.165957 21.248935  7.082978
223   1 0.0000 14.165957 21.248935 11.804964
224   1 0.0000 14.165957 21.248935 16.526949
225   1 0.0000 14.165957 21.248935 21.248935
226   1 0.0000 18.887942  2.360993  2.360993
227   1 0.0000 18.887942  2.360993  7.082978
228   1 0.0000 18.887942  2.360993 11.804964
229   1 0.0000 18.887942  2.360993 16.526949
230   1 0.0000 18.887942  2.360993 21.248935
231   1 0.0000 18.887942  7.082978  2.360993
232   1 0.0000 18.887942  7.082978  7.082978
233   1 0.0000 18.887942  7.082978 11.804964
234   1 0.0000 18.887942  7.082978 16.526949
235   1 0.0000 18.887942  7.082978 21.248935
236   1 0.0000 18.887942 11.804964  2.360993
237   1 0.0000 18.887942 11.804964  7.082978
238   1 0.0000 18.887942 11.804964 11.804964
239   1 0.0000 18.887942 11.804964 16.526949
240   1 0.0000 18.887942 11.804964 21.248935
241   1 0.0000 18.887942 16.526949  2.360993
242   1 0.0000 18.887942 16.526949  7.082978
243   1 0.0000 18.887942 16.526949 11.804964
244   1 0.0000 18.887942 16.526949 16.526949
245   1 0.0000 18.887942 16.526949 21.248935
246   1 0.0000 18.887942 21.248935  2.360993
247   1 0.0000 18.887942 21.248935  7.082978
248   1 0.0000 18.887942 21.248935 11.804964
249   1 0.0000 18.887942 21.248935 16.526949
250   1 0.0000 18.887942 21.248935 21.248935
251   1 0.0000  2.360993  0.000000  2.360993
252   1 0.0000  2.360993  0.000000  7.082978
253   1 0.0000  2.360993  0.000000 11.804964
254   1 0.0000  2.360993  0.000000 16.526949
255   1 0.0000  2.360993  0.000000 21.248935
256   1 0.0000  2.360993  4.721986  2.360993
257   1 0.0000  2.360993  4.721986  7.082978
258   1 0.0000  2.360993  4.721986 11.804964
259   1 0.0000  2.360993  4.721986 16.526949
260   1 0.0000  2.360993  4.721986 21.248935
261   1 0.0000  2.360993  9.443971  2.360993
262   1 0.0000  2.360993  9.443971  7.082978
263   1 0.0000  2.360993  9.443971 11.804964
264   1 0.0000  2.360993  9.443971 16.526949
265   1 0.0000  2.360993  9.443971 21.248935
266   1 0.0000  2.360993 14.165957  2.360993
267   1 0.0000  2.360993 14.165957  7.082978
268   1 0.0000  2.360993 14.165957 11.804964
269   1 0.0000  2.360993 14.165957 16.526949
270   1 0.0000  2.360993 14.165957 21.248935
271   1 0.0000  2.360993 18.887942  2.360993
272   1 0.0000  2.360993 18.887942  7.082978
273   1 0.0000  2.360993 18.887942 11.804964
274   1 0.0000  2.360993 18.887942 16.526949
275   1 0.0000  2.360993 18.887942 21.248935
276   1 0.0000  7.082978  0.000000  2.360993
277   1 0.0000  7.082978  0.000000  7.082978
278   1 0.0000  7.082978  0.000000 11.804964
279   1 0.0000  7.082978  0.000000 16.526949
280   1 0.0000  7.082978  0.000000 21.248935
281   1 0.0000  7.082978  4.721986  2.360993
282   1 0.0000  7.082978  4.721986  7.082978
283   1 0.0000  7.082978  4.721986 11.804964
284   1 0.0000  7.082978  4.721986 16.526949
285   1 0.0000  7.082978  4.721986 21.248935
286   1 0.0000  7.082978  9.443971  2.360993
287   1 0.0000  7.082978  9.443971  7.082978
288   1 0.0000  7.082978  9.443971 11.804964
289   1 0.0000  7.082978  9.443971 16.526949
290   1 0.0000  7.082978  9.443971 21.248935
291   1 0.0000  7.082978 14.165957  2.360993
292   1 0.0000  7.082978 14.165957  7.082978
293   1 0.0000  7.082978 14.165957 11.804964
294   1 0.0000  7.082978 14.165957 16.526949
295   1 0.0000  7.082978 14.165957 21.248935
296   1 0.0000  7.082978 18.887942  2.360993
297   1 0.0000  7.082978 18.887942  7.082978
298   1 0.0000  7.082978 18.887942 11.804964
299   1 0.0000  7.082978 18.887942 16.526949
300   1 0.0000  7.082978 18.887942 21.248935
301   1 0.0000 11.804964  0.000000  2.360993
302   1 0.0000 11.804964  0.000000  7.082978
303   1 0.0000 11.804964  0.000000 11.804964
304   1 0.0000 11.804964  0.000000 16.526949
305   1 0.0000 11.804964  0.000000 21.248935
306   1 0.0000 11.804964  4.721986  2.360993
307   1 0.0000 11.804964  4.721986  7.082978
308   1 0.0000 11.804964  4.721986 11.804964
309   1 0.0000 11.804964  4.721986 16.526949
310   1 0.0000 11.804964  4.721986 21.248935
311   1 0.0000 11.804964  9.443971  2.360993
312   1 0.0000 11.804964  9.443971  7.082978
313   1 0.0000 11.804964  9.443971 11.804964
314   1 0.0000 11.804964  9.443971 16.526949
315   1 0.0000 11.804964  9.443971 21.248935
316   1 0.0000 11.804964 14.165957  2.360993
317   1 0.0000 11.804964 14.165957  7.082978
318   1 0.0000 11.804964 14.165957 11.804964
319   1 0.0000 11.804964 14.165957 16.526949
320   1 0.0000 11.804964 14.165957 21.248935
321   1 0.0000 11.804964 18.887942  2.360993
322   1 0.0000 11.804964 18.887942  7.082978
323   1 0.0000 11.804964 18.887942 11.804964
324   1 0.0000 11.804964 18.887942 16.526949
325   1 0.0000 11.804964 18.887942 21.248935
326   1 0.0000 16.526949  0.000000  2.360993
327   1 0.0000 16.526949  0.000000  7.082978
328   1 0.0000 16.526949  0.000000 11.804964
329   1 0.0000 16.526949  0.000000 16.526949
330   1 0.0000 16.526949  0.000000 21.248935
331   1 0.0000 16.526949  4.721986  2.360993
332   1 0.0000 16.526949  4.721986  7.082978
333   1 0.0000 16.526949  4.721986 11.804964
334   1 0.0000 16.526949  4.721986 16.526949
335   1 0.0000 16.526949  4.721986 21.248935
336   1 0.0000 16.526949  9.443971  2.360993
337   1 0.0000 16.526949  9.443971  7.082978
338   1 0.0000 16.526949  9.443971 11.804964
339   1 0.0000 16.526949  9.443971 16.526949
340   1 0.0000 16.526949  9.443971 21.248935
341   1 0.0000 16.526949 14.165957  2.360993
342   1 0.0000 16.526949 14.165957  7.082978
343   1 0.0000 16.526949 14.165957 11.804964
344   1 0.0000 16.526949 14.165957 16.526949
345   1 0.0000 16.526949 14.165957 21.248935
346   1 0.0000 16.526949 18.887942  2.360993
347   1 0.0000 16.526949 18.887942  7.082978
348   1 0.0000 16.526949 18.887942 11.804964
349   1 0.0000 16.526949 18.887942 16.526949
350   1 0.0000 16.526949 18.887942 21.248935
351   1 0.0000 21.248935  0.000000  2.360993
352   1 0.0000 21.248935  0.000000  7.082978
353   1 0.0000 21.248935  0.000000 11.804964
354   1 0.0000 21.248935  0.000000 16.526949
355   1 0.0000 21.248935  0.000000 21.248935
356   1 0.0000 21.248935  4.721986  2.360993
357   1 0.0000 21.248935  4.721986  7.082978
358   1 0.0000 21.248935  4.721986 11.804964
359   1 0.0000 21.248935  4.721986 16.526949
360   1 0.0000 21.248935  4.721986 21.248935
361   1 0.0000 21.248935  9.443971  2.360993
362   1 0.0000 21.248935  9.443971  7.082978
363   1 0.0000 21.248935  9.443971 11.804964
364   1 0.0000 21.248935  9.443971 16.526949
365   1 0.0000 21.248935  9.443971 21.248935
366   1 0.0000 21.248935 14.165957  2.360993
367   1 0.0000 21.248935 14.165957  7.082978
368   1 0.0000 21.248935 14.165957 11.804964
369   1 0.0000 21.248935 14.165957 16.526949
370   1 0.0000 21.248935 14.165957 21.248935
371   1 0.0000 21.248935 18.887942  2.360993
372   1 0.0000 21.248935 18.887942  7.082978
373   1 0.0000 21.248935 18.887942 11.804964
374   1 0.0000 21.248935 18.887942 16.526949
375   1 0.0000 21.248935 18.887942 21.248935
376   1 0.0000  2.360993  2.360993  0.000000
377   1 0.0000  2.360993  2.360993  4.721986
378   1 0.0000  2.360993  2.360993  9.443971
379   1 0.0000  2.360993  2.360993 14.165957
380   1 0.0000  2.360993  2.360993 18.887942
381   1 0.0000  2.360993  7.082978  0.000000
382   1 0.0000  2.360993  7.082978  4.721986
383   1 0.0000  2.360993  7.082978  9.443971
384   1 0.0000  2.360993  7.082978 14.165957
385   1 0.0000  2.360993  7.082978 18.887942
386   1 0.0000  2.360993 11.804964  0.000000
387   1 0.0000  2.360993 11.804964  4.721986
388   1 0.0000  2.360993 11.804964  9.443971
389   1 0.0000  2.360993 11.804964 14.165957
390   1 0.0000  2.360993 11.804964 18.887942
391   1 0.0000  2.360993 16.526949  0.000000
392   1 0.0000  2.360993 16.526949  4.721986
393   1 0.0000  2.360993 16.526949  9.443971
394   1 0.0000  2.360993 16.526949 14.165957
395   1 0.0000  2.360993 16.526949 18.887942
396   1 0.0000  2.360993 21.248935  0.000000
397   1 0.0000  2.360993 21.248935  4.721986
398   1 0.0000  2.360993 21.248935  9.443971
399   1 0.0000  2.360993 21.248935 14.165957
400   1 0.0000  2.360993 21.248935 18.887942
401   1 0.0000  7.082978  2.360993  0.000000
402   1 0.0000  7.082978  2.360993  4.721986
403   1 0.0000  7.082978  2.360993  9.443971
404   1 0.0000  7.082978  2.360993 14.165957
405   1 0.0000  7.082978  2.360993 18.887942
406   1 0.0000  7.082978  7.082978  0.000000
407   1 0.0000  7.082978  7.082978  4.721986
408   1 0.0000  7.082978  7.082978  9.443971
409   1 0.0000  7.082978  7.082978 14.165957
410   1 0.0000  7.082978  7.082978 18.887942
411   1 0.0000  7.082978 11.804964  0.000000
412   1 0.0000  7.082978 11.804964  4.721986
413   1 0.0000  7.082978 11.804964  9.443971
414   1 0.0000  7.082978 11.804964 14.165957
415   1 0.0000  7.082978 11.804964 18.887942
416   1 0.0000  7.082978 16.526949  0.000000
417   1 0.0000  7.082978 16.526949  4.721986
418   1 0.0000  7.082978 16.526949  9.443971
419   1 0.0000  7.082978 16.526949 14.165957
420   1 0.0000  7.082978 16.526949 18.887942
421   1 0.0000  7.082978 21.248935  0.000000
422   1 0.0000  7.082978 21.248935  4.721986
423   1 0.0000  7.082978 21.248935  9.443971
424   1 0.0000  7.082978 21.248935 14.165957
425   1 0.0000  7.082978 21.248935 18.887942
426   1 0.0000 11.804964  2.360993  0.000000
427   1 0.0000 11.804964  2.360993  4.721986
428   1 0.0000 11.804964  2.360993  9.443971
429   1 0.0000 11.804964  2.360993 14.165957
430   1 0.0000 11.804964  2.360993 18.887942
431   1 0.0000 11.804964  7.082978  0.000000
432   1 0.0000 11.804964  7.082978  4.721986
433   1 0.0000 11.804964  7.082978  9.443971
434   1 0.0000 11.804964  7.082978 14.165957
435   1 0.0000 11.804964  7.082978 18.887942
436   1 0.0000 11.804964 11.804964  0.000000
437   1 0.0000 11.804964 11.804964  4.721986
438   1 0.0000 11.804964 11.804964  9.443971
439   1 0.0000 11.804964 11.804964 14.165957
440   1 0.0000 11.804964 11.804964 18.887942
441   1 0.0000 11.804964 16.526949  0.000000
442   1 0.0000 11.804964 16.526949  4.721986
443   1 0.0000 11.804964 16.526949  9.443971
444   1 0.0000 11.804964 16.526949 14.165957
445   1 0.0000 11.804964 16.526949 18.887942
446   1 0.0000 11.804964 21.248935  0.000000
447   1 0.0000 11.804964 21.248935  4.721986
448   1 0.0000 11.804964 21.248935  9.443971
449   1 0.0000 11.804964 21.248935 14.165957
450   1 0.0000 11.804964 21.248935 18.887942
451   1 0.0000 16.526949  2.360993  0.000000
452   1 0.0000 16.526949  2.360993  4.721986
453   1 0.0000 16.526949  2.360993  9.443971
454   1 0.0000 16.526949  2.360993 14.165957
455   1 0.0000 16.526949  2.360993 18.887942
456   1 0.0000 16.526949  7.082978  0.000000
457   1 0.0000 16.526949  7.082978  4.721986
458   1 0.0000 16.526949  7.082978  9.443971
459   1 0.0000 16.526949  7.082978 14.165957
460   1 0.0000 16.526949  7.082978 18.887942
461   1 0.0000 16.526949 11.804964  0.000000
462   1 0.0000 16.526949 11.804964  4.721986
463   1 0.0000 16.526949 11.804964  9.443971
464   1 0.0000 16.526949 11.804964 14.165957
465   1 0.0000 16.526949 11.804964 18.887942
466   1 0.0000 16.526949 16.526949  0.000000
467   1 0.0000 16.526949 16.526949  4.721986
468   1 0.0000 16.526949 16.526949  9.443971
469   1 0.0000 16.526949 16.526949 14.165957
470   1 0.0000 16.526949 16.526949 18.887942
471   1 0.0000 16.526949 21.248935  0.000000
472   1 0.0000 16.526949 21.248935  4.721986
473   1 0.0000 16.526949 21.248935  9.443971
474   1 0.0000 16.526949 21.248935 14.165957
475   1 0.0000 16.526949 21.248935 18.887942
476   1 0.0000 21.248935  2.360993  0.000000
477   1 0.0000 21.248935  2.360993  4.721986
478   1 0.0000 21.248935  2.360993  9.443971
479   1 0.0000 21.248935  2.360993 14.165957
480   1 0.0000 21.248935  2.360993 18.887942
481   1 0.0000 21.248935  7.082978  0.000000
482   1 0.0000 21.248935  7.082978  4.721986
483   1 0.0000 21.248935  7.082978  9.443971
484   1 0.0000 21.248935  7.082978 14.165957
485   1 0.0000 21.248935  7.082978 18.887942
486   1 0.0000 21.248935 11.804964  0.000000
487   1 0.0000 21.248935 11.804964  4.721986
488   1 0.0000 21.248935 11.804964  9.443971
489   1 0.0000 21.248935 11.804964 14.165957
490   1 0.0000 21.248935 11.804964 18.887942
491   1 0.0000 21.248935 16.526949  0.000000
492   1 0.0000 21.248935 16.526949  4.721986
493   1 0.0000 21.248935 16.526949  9.443971
494   1 0.0000 21.248935 16.526949 14.165957
495   1 0.0000 21.248935 16.526949 18.887942
496   1 0.0000 21.248935 21.248935  0.000000
497   1 0.0000 21.248935 21.248935  4.721986
498   1 0.0000 21.248935 21.248935  9.443971
499   1 0.0000 21.248935 21.248935 14.165957
500   1 0.0000 21.248935 21.248935 18.887942
501   2 0.0000  0.000000  2.360993  0.000000
502   2 0.0000  0.000000  2.360993  4.721986
503   2 0.0000  0.000000  2.360993  9.443971
504   2 0.0000  0.000000  2.360993 14.165957
505   2 0.0000  0.000000  2.360993 18.887942
506   2 0.0000  0.000000  7.082978  0.000000
507   2 0.0000  0.000000  7.082978  4.721986
508   2 0.0000  0.000000  7.082978  9.443971
509   2 0.0000  0.000000  7.082978 14.165957
510   2 0.0000  0.000000  7.082978 18.887942
511   2 0.0000  0.000000 11.804964  0.000000
512   2 0.0000  0.000000 11.804964  4.721986
513   2 0.0000  0.000000 11.804964  9.443971
514   2 0.0000  0.000000 11.804964 14.165957
515   2 0.0000  0.000000 11.804964 18.887942
516   2 0.0000  0.000000 16.526949  0.000000
517   2 0.0000  0.000000 16.526949  4.721986
518   2 0.0000  0.000000 16.526949  9.443971
519   2 0.0000  0.000000 16.526949 14.165957
520   2 0.0000  0.000000 16.526949 18.887942
521   2 0.0000  0.000000 21.248935  0.000000
522   2 0.0000  0.000000 21.248935  4.721986
523   2 0.0000  0.000000 21.248935  9.443971
524   2 0.0000  0.000000 21.248935 14.165957
525   2 0.0000  0.000000 21.248935 18.887942
526   2 0.0000  4.721986  2.360993  0.000000
527   2 0.0000  4.721986  2.360993  4.721986
528   2 0.0000  4.721986  2.360993  9.443971
529   2 0.0000  4.721986  2.360993 14.165957
530   2 0.0000  4.721986  2.360993 18.887942
531   2 0.0000  4.721986  7.082978  0.000000
532   2 0.0000  4.721986  7.082978  4.721986
533   2 0.0000  4.721986  7.082978  9.443971
534   2 0.0000  4.721986  7.082978 14.165957
535   2 0.0000  4.721986  7.082978 18.887942
536   2 0.0000  4.721986 11.804964  0.000000
537   2 0.0000  4.721986 11.804964  4.721986
538   2 0.0000  4.721986 11.804964  9.443971
539   2 0.0000  4.721986 11.804964 14.165957
540   2 0.0000  4.721986 11.804964 18.887942
541   2 0.0000  4.721986 16.526949  0.000000
542   2 0.0000  4.721986 16.526949  4.721986
543   2 0.0000  4.721986 16.526949  9.443971
544   2 0.0000  4.721986 16.526949 14.165957
545   2 0.0000  4.721986 16.526949 18.887942
546   2 0.0000  4.721986 21.248935  0.000000
547   2 0.0000  4.721986 21.248935  4.721986
548   2 0.0000  4.721986 21.248935  9.443971
549   2 0.0000  4.721986 21.248935 14.165957
550   2 0.0000  4.721986 21.248935 18.887942
551   2 0.0000  9.443971  2.360993  0.000000
552   2 0.0000  9.443971  2.360993  4.721986
553   2 0.0000  9.443971  2.360993  9.443971
554   2 0.0000  9.443971  2.360993 14.165957
555   2 0.0000  9.443971  2.360993 18.887942
556   2 0.0000  9.443971  7.082978  0.000000
557   2 0.0000  9.443971  7.082978  4.721986
558   2 0.0000  9.443971  7.082978  9.443971
559   2 0.0000  9.443971  7.082978 14.165957
560   2 0.0000  9.443971  7.082978 18.887942
561   2 0.0000  9.443971 11.804964  0.000000
562   2 0.0000  9.443971 11.804964  4.721986
563   2 0.0000  9.443971 11.804964  9.443971
564   2 0.0000  9.443971 11.804964 14.165957
565   2 0.0000  9.443971 11.804964 18.887942
566   2 0.0000  9.443971 16.526949  0.000000
567   2 0.0000  9.443971 16.526949  4.721986
568   2 0.0000  9.443971 16.526949  9.443971
569   2 0.0000  9.443971 16.526949 14.165957
570   2 0.0000  9.443971 16.526949 18.887942
571   2 0.0000  9.443971 21.248935  0.000000
572   2 0.0000  9.443971 21.248935  4.721986
573   2 0.0000  9.443971 21.248935  9.443971
574   2 0.0000  9.443971 21.248935 14.165957
575   2 0.0000  9.443971 21.248935 18.887942
576   2 0.0000 14.165957  2.360993  0.000000
577   2 0.0000 14.165957  2.360993  4.721986
578   2 0.0000 14.165957  2.360993  9.443971
579   2 0.0000 14.165957  2.360993 14.165957
580   2 0.0000 14.165957  2.360993 18.887942
581   2 0.0000 14.165957  7.082978  0.000000
582   2 0.0000 14.165957  7.082978  4.721986
583   2 0.0000 14.165957  7.082978  9.443971
584   2 0.0000 14.165957  7.082978 14.165957
585   2 0.0000 14.165957  7.082978 18.887942
586   2 0.0000 14.165957 11.804964  0.000000
587   2 0.0000 14.165957 11.804964  4.721986
588   2 0.0000 14.165957 11.804964  9.443971
589   2 0.0000 14.165957 11.804964 14.165957
590   2 0.0000 14.165957 11.804964 18.887942
591   2 0.0000 14.165957 16.526949  0.000000
592   2 0.0000 14.165957 16.526949  4.721986
593   2 0.0000 14.165957 16.526949  9.443971
594   2 0.0000 14.165957 16.526949 14.165957
595   2 0.0000 14.165957 16.526949 18.887942
596   2 0.0000 14.165957 21.248935  0.000000
597   2 0.0000 14.165957 21.248935  4.721986
598   2 0.0000 14.165957 21.248935  9.443971
599   2 0.0000 14.165957 21.248935 14.165957
600   2 0.0000 14.165957 21.248935 18.887942
601   2 0.0000 18.887942  2.360993  0.000000
602   2 0.0000 18.887942  2.360993  4.721986
603   2 0.0000 18.887942  2.360993  9.443971
604   2 0.0000 18.887942  2.360993 14.165957
605   2 0.0000 18.887942  2.360993 18.887942
606   2 0.0000 18.887942  7.082978  0.000000
607   2 0.0000 18.887942  7.082978  4.721986
608   2 0.0000 18.887942  7.082978  9.443971
609   2 0.0000 18.887942  7.082978 14.165957
610   2 0.0000 18.887942  7.082978 18.887942
611   2 0.0000 18.887942 11.804964 -0.000000
612   2 0.0000 18.887942 11.804964  4.721986
613   2 0.0000 18.887942 11.804964  9.443971
614   2 0.0000 18.887942 11.804964 14.165957
615   2 0.0000 18.887942 11.804964 18.887942
616   2 0.0000 18.887942 16.526949  0.000000
617   2 0.0000 18.887942 16.526949  4.721986
618   2 0.0000 18.887942 16.526949  9.443971
619   2 0.0000 18.887942 16.526949 14.165957
620   2 0.0000 18.887942 16.526949 18.887942
621   2 0.0000 18.887942 21.248935  0.000000
622   2 0.0000 18.887942 21.248935  4.721986
623   2 0.0000 18.887942 21.248935  9.443971
624   2 0.0000 18.887942 21.248935 14.165957
625   2 0.0000 18.887942 21.248935 18.887942
626   2 0.0000  0.000000  0.000000  2.360993
627   2 0.0000  0.000000  0.000000  7.082978
628   2 0.0000  0.000000  0.000000 11.804964
629   2 0.0000  0.000000  0.000000 16.526949
630   2 0.0000  0.000000  0.000000 21.248935
631   2 0.0000  0.000000  4.721986  2.360993
632   2 0.0000  0.000000  4.721986  7.082978
633   2 0.0000  0.000000  4.721986 11.804964
634   2 0.0000  0.000000  4.721986 16.526949
635   2 0.0000  0.000000  4.721986 21.248935
636   2 0.0000  0.000000  9.443971  2.360993
637   2 0.0000  0.000000  9.443971  7.082978
638   2 0.0000  0.000000  9.443971 11.804964
639   2 0.0000  0.000000  9.443971 16.526949
640   2 0.0000  0.000000  9.443971 21.248935
641   2 0.0000  0.000000 14.165957  2.360993
642   2 0.0000  0.000000 14.165957  7.082978
643   2 0.0000  0.000000 14.165957 11.804964
644   2 0.0000  0.000000 14.165957 16.526949
645   2 0.0000  0.000000 14.165957 21.248935
646   2 0.0000  0.000000 18.887942  2.360993
647   2 0.0000  0.000000 18.887942  7.082978
648   2 0.0000  0.000000 18.887942 11.804964
649   2 0.0000  0.000000 18.887942 16.526949
650   2 0.0000  0.000000 18.887942 21.248935
651   2 0.0000  4.721986  0.000000  2.360993
652   2 0.0000  4.721986  0.000000  7.082978
653   2 0.0000  4.721986  0.000000 11.804964
654   2 0.0000  4.721986  0.000000 16.526949
655   2 0.0000  4.721986  0.000000 21.248935
656   2 0.0000  4.721986  4.721986  2.360993
657   2 0.0000  4.721986  4.721986  7.082978
658   2 0.0000  4.721986  4.721986 11.804964
659   2 0.0000  4.721986  4.721986 16.526949
660   2 0.0000  4.721986  4.721986 21.248935
661   2 0.0000  4.721986  9.443971  2.360993
662   2 0.0000  4.721986  9.443971  7.082978
663   2 0.0000  4.721986  9.443971 11.804964
664   2 0.0000  4.721986  9.443971 16.526949
665   2 0.0000  4.721986  9.443971 21.248935
666   2 0.0000  4.721986 14.165957  2.360993
667   2 0.0000  4.721986 14.165957  7.082978
668   2 0.0000  4.721986 14.165957 11.804964
669   2 0.0000  4.721986 14.165957 16.526949
670   2 0.0000  4.721986 14.165957 21.248935
671   2 0.0000  4.721986 18.887942  2.360993
672   2 0.0000  4.721986 18.887942  7.082978
673   2 0.0000  4.721986 18.887942 11.804964
674   2 0.0000  4.721986 18.887942 16.526949
675   2 0.0000  4.721986 18.887942 21.248935
676   2 0.0000  9.443971  0.000000  2.360993
677   2 0.0000  9.443971  0.000000  7.082978
678   2 0.0000  9.443971  0.000000 11.804964
679   2 0.0000  9.443971  0.000000 16.526949
680   2 0.0000  9.443971  0.000000 21.248935
681   2 0.0000  9.443971  4.721986  2.360993
682   2 0.0000  9.443971  4.721986  7.082978
683   2 0.0000  9.443971  4.721986 11.804964
684   2 0.0000  9.443971  4.721986 16.526949
685   2 0.0000  9.443971  4.721986 21.248935
686   2 0.0000  9.443971  9.443971  2.360993
687   2 0.0000  9.443971  9.443971  7.082978
688   2 0.0000  9.443971  9.443971 11.804964
689   2 0.0000  9.443971  9.443971 16.526949
690   2 0.0000  9.443971  9.443971 21.248935
691   2 0.0000  9.443971 14.165957  2.360993
692   2 0.0000  9.443971 14.165957  7.082978
693   2 0.0000  9.443971 14.165957 11.804964
694   2 0.0000  9.443971 14.165957 16.526949
695   2 0.0000  9.443971 14.165957 21.248935
696   2 0.0000  9.443971 18.887942  2.360993
697   2 0.0000  9.443971 18.887942  7.082978
698   2 0.0000  9.443971 18.887942 11.804964
699   2 0.0000  9.443971 18.887942 16.526949
700   2 0.0000  9.443971 18.887942 21.248935
701   2 0.0000 14.165957  0.000000  2.360993
702   2 0.0000 14.165957  0.000000  7.082978
703   2 0.0000 14.165957  0.000000 11.804964
704   2 0.0000 14.165957  0.000000 16.526949
705   2 0.0000 14.165957  0.000000 21.248935
706   2 0.0000 14.165957  4.721986  2.360993
707   2 0.0000 14.165957  4.721986  7.082978
708   2 0.0000 14.165957  4.721986 11.804964
709   2 0.0000 14.165957  4.721986 16.526949
710   2 0.0000 14.165957  4.721986 21.248935
711   2 0.0000 14.165957  9.443971  2.360993
712   2 0.0000 14.165957  9.443971  7.082978
713   2 0.0000 14.165957  9.443971 11.804964
714   2 0.0000 14.165957  9.443971 16.526949
715   2 0.0000 14.165957  9.443971 21.248935
716   2 0.0000 14.165957 14.165957  2.360993
717   2 0.0000 14.165957 14.165957  7.082978
718   2 0.0000 14.165957 14.165957 11.804964
719   2 0.0000 14.165957 14.165957 16.526949
720   2 0.0000 14.165957 14.165957 21.248935
721   2 0.0000 14.165957 18.887942  2.360993
722   2 0.0000 14.165957 18.887942  7.082978
723   2 0.0000 14.165957 18.887942 11.804964
724   2 0.0000 14.165957 18.887942 16.526949
725   2 0.0000 14.165957 18.887942 21.248935
726   2 0.0000 18.887942  0.000000  2.360993
727   2 0.0000 18.887942  0.000000  7.082978
728   2 0.0000 18.887942  0.000000 11.804964
729   2 0.0000 18.887942  0.000000 16.526949
730   2 0.0000 18.887942  0.000000 21.248935
731   2 0.0000 18.887942  4.721986  2.360993
732   2 0.0000 18.887942  4.721986  7.082978
733   2 0.0000 18.887942  4.721986 11.804964
734   2 0.0000 18.887942  4.721986 16.526949
735   2 0.0000 18.887942  4.721986 21.248935
736   2 0.0000 18.887942  9.443971  2.360993
737   2 0.0000 18.887942  9.443971  7.082978
738   2 0.0000 18.887942  9.443971 11.804964
739   2 0.0000 18.887942  9.443971 16.526949
740   2 0.0000 18.887942  9.443971 21.248935
741   2 0.0000 18.887942 14.165957  2.360993
742   2 0.0000 18.887942 14.165957  7.082978
743   2 0.0000 18.887942 14.165957 11.804964
744   2 0.0000 18.887942 14.165957 16.526949
745   2 0.0000 18.887942 14.165957 21.248935
746   2 0.0000 18.887942 18.887942  2.360993
747   2 0.0000 18.887942 18.887942  7.082978
748   2 0.0000 18.887942 18.887942 11.804964
749   2 0.0000 18.887942 18.887942 16.526949
750   2 0.0000 18.887942 18.887942 21.248935
751   2 0.0000  2.360993  2.360993  2.360993
752   2 0.0000  2.360993  2.360993  7.082978
753   2 0.0000  2.360993  2.360993 11.804964
754   2 0.0000  2.360993  2.360993 16.526949
755   2 0.0000  2.360993  2.360993 21.248935
756   2 0.0000  2.360993  7.082978  2.360993
757   2 0.0000  2.360993  7.082978  7.082978
758   2 0.0000  2.360993  7.082978 11.804964
759   2 0.0000  2.360993  7.082978 16.526949
760   2 0.0000  2.360993  7.082978 21.248935
761   2 0.0000  2.360993 11.804964  2.360993
762   2 0.0000  2.360993 11.804964  7.082978
763   2 0.0000  2.360993 11.804964 11.804964
764   2 0.0000  2.360993 11.804964 16.526949
765   2 0.0000  2.360993 11.804964 21.248935
766   2 0.0000  2.360993 16.526949  2.360993
767   2 0.0000  2.360993 16.526949  7.082978
768   2 0.0000  2.360993 16.526949 11.804964
769   2 0.0000  2.360993 16.526949 16.526949
770   2 0.0000  2.360993 16.526949 21.248935
771   2 0.0000  2.360993 21.248935  2.360993
772   2 0.0000  2.360993 21.248935  7.082978
773   2 0.0000  2.360993 21.248935 11.804964
774   2 0.0000  2.360993 21.248935 16.526949
775   2 0.0000  2.360993 21.248935 21.248935
776   2 0.0000  7.082978  2.360993  2.360993
777   2 0.0000  7.082978  2.360993  7.082978
778   2 0.0000  7.082978  2.360993 11.804964
779   2 0.0000  7.082978  2.360993 16.526949
780   2 0.0000  7.082978  2.360993 21.248935
781   2 0.0000  7.082978  7.082978  2.360993
782   2 0.0000  7.082978  7.082978  7.082978
783   2 0.0000  7.082978  7.082978 11.804964
784   2 0.0000  7.082978  7.082978 16.526949
785   2 0.0000  7.082978  7.082978 21.248935
786   2 0.0000  7.082978 11.804964  2.360993
787   2 0.0000  7.082978 11.804964  7.082978
788   2 0.0000  7.082978 11.804964 11.804964
789   2 0.0000  7.082978 11.804964 16.526949
790   2 0.0000  7.082978 11.804964 21.248935
791   2 0.0000  7.082978 16.526949  2.360993
792   2 0.0000  7.082978 16.526949  7.082978
793   2 0.0000  7.082978 16.526949 11.804964
794   2 0.0000  7.082978 16.526949 16.526949
795   2 0.0000  7.082978 16.526949 21.248935
796   2 0.0000  7.082978 21.248935  2.360993
797   2 0.0000  7.082978 21.248935  7.082978
798   2 0.0000  7.082978 21.248935 11.804964
799   2 0.0000  7.082978 21.248935 16.526949
800   2 0.0000  7.082978 21.248935 21.248935
801   2 0.0000 11.804964  2.360993  2.360993
802   2 0.0000 11.804964  2.360993  7.082978
803   2 0.0000 11.804964  2.360993 11.804964
804   2 0.0000 11.804964  2.360993 16.526949
805   2 0.0000 11.804964  2.360993 21.248935
806   2 0.0000 11.804964  7.082978  2.360993
807   2 0.0000 11.804964  7.082978  7.082978
808   2 0.0000 11.804964  7.082978 11.804964
809   2 0.0000 11.804964  7.082978 16.526949
810   2 0.0000 11.804964  7.082978 21.248935
811   2 0.0000 11.804964 11.804964  2.360993
812   2 0.0000 11.804964 11.804964  7.082978
813   2 0.0000 11.804964 11.804964 11.804964
814   2 0.0000 11.804964 11.804964 16.526949
815   2 0.0000 11.804964 11.804964 21.248935
816   2 0.0000 11.804964 16.526949  2.360993
817   2 0.0000 11.804964 16.526949  7.082978
818   2 0.0000 11.804964 16.526949 11.804964
819   2 0.0000 11.804964 16.526949 16.526949
820   2 0.0000 11.804964 16.526949 21.248935
821   2 0.0000 11.804964 21.248935  2.360993
822   2 0.0000 11.804964 21.248935  7.082978
823   2 0.0000 11.804964 21.248935 11.804964
824   2 0.0000 11.804964 21.248935 16.526949
825   2 0.0000 11.804964 21.248935 21.248935
826   2 0.0000 16.526949  2.360993  2.360993
827   2 0.0000 16.526949  2.360993  7.082978
828   2 0.0000 16.526949  2.360993 11.804964
829   2 0.0000 16.526949  2.360993 16.526949
830   2 0.0000 16.526949  2.360993 21.248935
831   2 0.0000 16.526949  7.082978  2.360993
832   2 0.0000 16.526949  7.082978  7.082978
833   2 0.0000 16.526949  7.082978 11.804964
834   2 0.0000 16.526949  7.082978 16.526949
835   2 0.0000 16.526949  7.082978 21.248935
836   2 0.0000 16.526949 11.804964  2.360993
837   2 0.0000 16.526949 11.804964  7.082978
838   2 0.0000 16.526949 11.804964 11.804964
839   2 0.0000 16.526949 11.804964 16.526949
840   2 0.0000 16.526949 11.804964 21.248935
841   2 0.0000 16.526949 16.526949  2.360993
842   2 0.0000 16.526949 16.526949  7.082978
843   2 0.0000 16.526949 16.526949 11.804964
844   2 0.0000 16.526949 16.526949 16.526949
845   2 0.0000 16.526949 16.526949 21.248935
846   2 0.0000 16.526949 21.248935  2.360993
847   2 0.0000 16.526949 21.248935  7.082978
848   2 0.0000 16.526949 21.248935 11.804964
849   2 0.0000 16.526949 21.248935 16.526949
850   2 0.0000 16.526949 21.248935 21.248935
851   2 0.0000 21.248935  2.360993  2.360993
852   2 0.0000 21.248935  2.360993  7.082978
853   2 0.0000 21.248935  2.360993 11.804964
854   2 0.0000 21.248935  2.360993 16.526949
855   2 0.0000 21.248935  2.360993 21.248935
856   2 0.0000 21.248935  7.082978  2.360993
857   2 0.0000 21.248935  7.082978  7.082978
858   2 0.0000 21.248935  7.082978 11.804964
859   2 0.0000 21.248935  7.082978 16.526949
860   2 0.0000 21.248935  7.082978 21.248935
861   2 0.0000 21.248935 11.804964  2.360993
862   2 0.0000 21.248935 11.804964  7.082978
863   2 0.0000 21.248935 11.804964 11.804964
864   2 0.0000 21.248935 11.804964 16.526949
865   2 0.0000 21.248935 11.804964 21.248935
866   2 0.0000 21.248935 16.526949  2.360993
867   2 0.0000 21.248935 16.526949  7.082978
868   2 0.0000 21.248935 16.526949 11.804964
869   2 0.0000 21.248935 16.526949 16.526949
870   2 0.0000 21.248935 16.526949 21.248935
871   2 0.0000 21.248935 21.248935  2.360993
872   2 0.0000 21.248935 21.248935  7.082978
873   2 0.0000 21.248935 21.248935 11.804964
874   2 0.0000 21.248935 21.248935 16.526949
875   2 0.0000 21.248935 21.248935 21.248935
876   2 0.0000  2.360993 -0.000000  0.000000
877   2 0.0000  2.360993  0.000000  4.721986
878   2 0.0000  2.360993  0.000000  9.443971
879   2 0.0000  2.360993  0.000000 14.165957
880   2 0.0000  2.360993  0.000000 18.887942
881   2 0.0000  2.360993  4.721986  0.000000
882   2 0.0000  2.360993  4.721986  4.721986
883   2 0.0000  2.360993  4.721986  9.443971
884   2 0.0000  2.360993  4.721986 14.165957
885   2 0.0000  2.360993  4.721986 18.887942
886   2 0.0000  2.360993  9.443971  0.000000
887   2 0.0000  2.360993  9.443971  4.721986
888   2 0.0000  2.360993  9.443971  9.443971
889   2 0.0000  2.360993  9.443971 14.165957
890   2 0.0000  2.360993  9.443971 18.887942
891   2 0.0000  2.360993 14.165957  0.000000
892   2 0.0000  2.360993 14.165957  4.721986
893   2 0.0000  2.360993 14.165957  9.443971
894   2 0.0000  2.360993 14.165957 14.165957
895   2 0.0000  2.360993 14.165957 18.887942
896   2 0.0000  2.360993 18.887942  0.000000
897   2 0.0000  2.360993 18.887942  4.721986
898   2 0.0000  2.360993 18.887942  9.443971
899   2 0.0000  2.360993 18.887942 14.165957
900   2 0.0000  2.360993 18.887942 18.887942
901   2 0.0000  7.082978 -0.000000  0.000000
902   2 0.0000  7.082978  0.000000  4.721986
903   2 0.0000  7.082978  0.000000  9.443971
904   2 0.0000  7.082978  0.000000 14.165957
905   2 0.0000  7.082978  0.000000 18.887942
906   2 0.0000  7.082978  4.721986  0.000000
907   2 0.0000  7.082978  4.721986  4.721986
908   2 0.0000  7.082978  4.721986  9.443971
909   2 0.0000  7.082978  4.721986 14.165957
910   2 0.0000  7.082978  4.721986 18.887942
911   2 0.0000  7.082978  9.443971  0.000000
912   2 0.0000  7.082978  9.443971  4.721986
913   2 0.0000  7.082978  9.443971  9.443971
914   2 0.0000  7.082978  9.443971 14.165957
915   2 0.0000  7.082978  9.443971 18.887942
916   2 0.0000  7.082978 14.165957  0.000000
917   2 0.0000  7.082978 14.165957  4.721986
918   2 0.0000  7.082978 14.165957  9.443971
919   2 0.0000  7.082978 14.165957 14.165957
920   2 0.0000  7.082978 14.165957 18.887942
921   2 0.0000  7.082978 18.887942  0.000000
922   2 0.0000  7.082978 18.887942  4.721986
923   2 0.0000  7.082978 18.887942  9.443971
924   2 0.0000  7.082978 18.887942 14.165957
925   2 0.0000  7.082978 18.887942 18.887942
926   2 0.0000 11.804964 -0.000000  0.000000
927   2 0.0000 11.804964  0.000000  4.721986
928   2 0.0000 11.804964  0.000000  9.443971
929   2 0.0000 11.804964  0.000000 14.165957
930   2 0.0000 11.804964  0.000000 18.887942
931   2 0.0000 11.804964  4.721986  0.000000
932   2 0.0000 11.804964  4.721986  4.721986
933   2 0.0000 11.804964  4.721986  9.443971
934   2 0.0000 11.804964  4.721986 14.165957
935   2 0.0000 11.804964  4.721986 18.887942
936   2 0.0000 11.804964  9.443971  0.000000
937   2 0.0000 11.804964  9.443971  4.721986
938   2 0.0000 11.804964  9.443971  9.443971
939   2 0.0000 11.804964  9.443971 14.165957
940   2 0.0000 11.804964  9.443971 18.887942
941   2 0.0000 11.804964 14.165957  0.000000
942   2 0.0000 11.804964 14.165957  4.721986
943   2 0.0000 11.804964 14.165957  9.443971
944   2 0.0000 11.804964 14.165957 14.165957
945   2 0.0000 11.804964 14.165957 18.887942
946   2 0.0000 11.804964 18.887942  0.000000
947   2 0.0000 11.804964 18.887942  4.721986
948   2 0.0000 11.804964 18.887942  9.443971
949   2 0.0000 11.804964 18.887942 14.165957
950   2 0.0000 11.804964 18.887942 18.887942
951   2 0.0000 16.526949 -0.000000  0.000000
952   2 0.0000 16.526949  0.000000  4.721986
953   2 0.0000 16.526949  0.000000  9.443971
954   2 0.0000 16.526949  0.000000 14.165957
955   2 0.0000 16.526949  0.000000 18.887942
956   2 0.0000 16.526949  4.721986  0.000000
957   2 0.0000 16.526949  4.721986  4.721986
958   2 0.0000 16.526949  4.721986  9.443971
959   2 0.0000 16.526949  4.721986 14.165957
960   2 0.0000 16.526949  4.721986 18.887942
961   2 0.0000 16.526949  9.443971  0.000000
962   2 0.0000 16.526949  9.443971  4.721986
963   2 0.0000 16.526949  9.443971  9.443971
964   2 0.0000 16.526949  9.443971 14.165957
965   2 0.0000 16.526949  9.443971 18.887942
966   2 0.0000 16.526949 14.165957  0.000000
967   2 0.0000 16.526949 14.165957  4.721986
968   2 0.0000 16.526949 14.165957  9.443971
969   2 0.0000 16.526949 14.165957 14.165957
970   2 0.0000 16.526949 14.165957 18.887942
971   2 0.0000 16.526949 18.887942  0.000000
972   2 0.0000 16.526949 18.887942  4.721986
973   2 0.0000 16.526949 18.887942  9.443971
974   2 0.0000 16.526949 18.887942 14.165957
975   2 0.0000 16.526949 18.887942 18.887942
976   2 0.0000 21.248935 -0.000000  0.000000
977   2 0.0000 21.248935  0.000000  4.721986
978   2 0.0000 21.248935  0.000000  9.443971
979   2 0.0000 21.248935  0.000000 14.165957
980   2 0.0000 21.248935  0.000000 18.887942
981   2 0.0000 21.248935  4.721986  0.000000
982   2 0.0000 21.248935  4.721986  4.721986
983   2 0.0000 21.248935  4.721986  9.443971
984   2 0.0000 21.248935  4.721986 14.165957
985   2 0.0000 21.248935  4.721986 18.887942
986   2 0.0000 21.248935  9.443971  0.000000
987   2 0.0000 21.248935  9.443971  4.721986
988   2 0.0000 21.248935  9.443971  9.443971
989   2 0.0000 21.248935  9.443971 14.165957
990   2 0.0000 21.248935  9.443971 18.887942
991   2 0.0000 21.248935 14.165957  0.000000
992   2 0.0000 21.248935 14.165957  4.721986
993   2 0.0000 21.248935 14.165957  9.443971
994   2 0.0000 21.248935 14.165957 14.165957
995   2 0.0000 21.248935 14.165957 18.887942
996   2 0.0000 21.248935 18.887942  0.000000
997   2 0.0000 21.248935 18.887942  4.721986
998   2 0.0000 21.248935 18.887942  9.443971
999   2 0.0000 21.248935 18.887942 14.165957
1000  2 0.0000 21.248935 18.887942 18.887942

