Generated by pymatgen.io.lammps.data.LammpsData

256  atoms

  2  atom types

0.000000 16.675352  xlo xhi
0.000000 28.882558  ylo yhi
0.000000 13.559235  zlo zhi

Masses

1  112.411
2   32.065

Atoms

1    1 0.0000  2.084419  1.203440  3.391330
2    1 0.0000  2.084419  1.203440 10.170947
3    1 0.0000  2.084419  8.424079  3.391330
4    1 0.0000  2.084419  8.424079 10.170947
5    1 0.0000  2.084419 15.644719  3.391330
6    1 0.0000  2.084419 15.644719 10.170947
7    1 0.0000  2.084419 22.865358  3.391330
8    1 0.0000  2.084419 22.865358 10.170947
9    1 0.0000  6.253257  1.203440  3.391330
10   1 0.0000  6.253257  1.203440 10.170947
11   1 0.0000  6.253257  8.424079  3.391330
12   1 0.0000  6.253257  8.424079 10.170947
13   1 0.0000  6.253257 15.644719  3.391330
14   1 0.0000  6.253257 15.644719 10.170947
15   1 0.0000  6.253257 22.865358  3.391330
16   1 0.0000  6.253257 22.865358 10.170947
17   1 0.0000 10.422095  1.203440  3.391330
18   1 0.0000 10.422095  1.203440 10.170947
19   1 0.0000 10.422095  8.424079  3.391330
20   1 0.0000 10.422095  8.424079 10.170947
21   1 0.0000 10.422095 15.644719  3.391330
22   1 0.0000 10.422095 15.644719 10.170947
23   1 0.0000 10.422095 22.865358  3.391330
24   1 0.0000 10.422095 22.865358 10.170947
25   1 0.0000 14.590933  1.203440  3.391330
26   1 0.0000 14.590933  1.203440 10.170947
27   1 0.0000 14.590933  8.424079  3.391330
28   1 0.0000 14.590933  8.424079 10.170947
29   1 0.0000 14.590933 15.644719  3.391330
30   1 0.0000 14.590933 15.644719 10.170947
31   1 0.0000 14.590933 22.865358  3.391330
32   1 0.0000 14.590933 22.865358 10.170947
33   1 0.0000  0.000000  4.813760  3.391330
34   1 0.0000  0.000000  4.813760 10.170947
35   1 0.0000  0.000000 12.034399  3.391330
36   1 0.0000  0.000000 12.034399 10.170947
37   1 0.0000  0.000000 19.255038  3.391330
38   1 0.0000  0.000000 19.255038 10.170947
39   1 0.0000  0.000000 26.475678  3.391330
40   1 0.0000  0.000000 26.475678 10.170947
41   1 0.0000  4.168838  4.813760  3.391330
42   1 0.0000  4.168838  4.813760 10.170947
43   1 0.0000  4.168838 12.034399  3.391330
44   1 0.0000  4.168838 12.034399 10.170947
45   1 0.0000  4.168838 19.255038  3.391330
46   1 0.0000  4.168838 19.255038 10.170947
47   1 0.0000  4.168838 26.475678  3.391330
48   1 0.0000  4.168838 26.475678 10.170947
49   1 0.0000  8.337676  4.813760  3.391330
50   1 0.0000  8.337676  4.813760 10.170947
51   1 0.0000  8.337676 12.034399  3.391330
52   1 0.0000  8.337676 12.034399 10.170947
53   1 0.0000  8.337676 19.255038  3.391330
54   1 0.0000  8.337676 19.255038 10.170947
55   1 0.0000  8.337676 26.475678  3.391330
56   1 0.0000  8.337676 26.475678 10.170947
57   1 0.0000 12.506514  4.813760  3.391330
58   1 0.0000 12.506514  4.813760 10.170947
59   1 0.0000 12.506514 12.034399  3.391330
60   1 0.0000 12.506514 12.034399 10.170947
61   1 0.0000 12.506514 19.255038  3.391330
62   1 0.0000 12.506514 19.255038 10.170947
63   1 0.0000 12.506514 26.475678  3.391330
64   1 0.0000 12.506514 26.475678 10.170947
65   1 0.0000  0.000000  2.406880  0.001521
66   1 0.0000  0.000000  2.406880  6.781139
67   1 0.0000  0.000000  9.627519  0.001521
68   1 0.0000  0.000000  9.627519  6.781139
69   1 0.0000  0.000000 16.848159  0.001521
70   1 0.0000  0.000000 16.848159  6.781139
71   1 0.0000  0.000000 24.068798  0.001521
72   1 0.0000  0.000000 24.068798  6.781139
73   1 0.0000  4.168838  2.406880  0.001521
74   1 0.0000  4.168838  2.406880  6.781139
75   1 0.0000  4.168838  9.627519  0.001521
76   1 0.0000  4.168838  9.627519  6.781139
77   1 0.0000  4.168838 16.848159  0.001521
78   1 0.0000  4.168838 16.848159  6.781139
79   1 0.0000  4.168838 24.068798  0.001521
80   1 0.0000  4.168838 24.068798  6.781139
81   1 0.0000  8.337676  2.406880  0.001521
82   1 0.0000  8.337676  2.406880  6.781139
83   1 0.0000  8.337676  9.627519  0.001521
84   1 0.0000  8.337676  9.627519  6.781139
85   1 0.0000  8.337676 16.848159  0.001521
86   1 0.0000  8.337676 16.848159  6.781139
87   1 0.0000  8.337676 24.068798  0.001521
88   1 0.0000  8.337676 24.068798  6.781139
89   1 0.0000 12.506514  2.406880  0.001521
90   1 0.0000 12.506514  2.406880  6.781139
91   1 0.0000 12.506514  9.627519  0.001521
92   1 0.0000 12.506514  9.627519  6.781139
93   1 0.0000 12.506514 16.848159  0.001521
94   1 0.0000 12.506514 16.848159  6.781139
95   1 0.0000 12.506514 24.068798  0.001521
96   1 0.0000 12.506514 24.068798  6.781139
97   1 0.0000  2.084419  6.017199  0.001521
98   1 0.0000  2.084419  6.017199  6.781139
99   1 0.0000  2.084419 13.237839  0.001521
100  1 0.0000  2.084419 13.237839  6.781139
101  1 0.0000  2.084419 20.458478  0.001521
102  1 0.0000  2.084419 20.458478  6.781139
103  1 0.0000  2.084419 27.679118  0.001521
104  1 0.0000  2.084419 27.679118  6.781139
105  1 0.0000  6.253257  6.017199  0.001521
106  1 0.0000  6.253257  6.017199  6.781139
107  1 0.0000  6.253257 13.237839  0.001521
108  1 0.0000  6.253257 13.237839  6.781139
109  1 0.0000  6.253257 20.458478  0.001521
110  1 0.0000  6.253257 20.458478  6.781139
111  1 0.0000  6.253257 27.679118  0.001521
112  1 0.0000  6.253257 27.679118  6.781139
113  1 0.0000 10.422095  6.017199  0.001521
114  1 0.0000 10.422095  6.017199  6.781139
115  1 0.0000 10.422095 13.237839  0.001521
116  1 0.0000 10.422095 13.237839  6.781139
117  1 0.0000 10.422095 20.458478  0.001521
118  1 0.0000 10.422095 20.458478  6.781139
119  1 0.0000 10.422095 27.679118  0.001521
120  1 0.0000 10.422095 27.679118  6.781139
121  1 0.0000 14.590933  6.017199  0.001521
122  1 0.0000 14.590933  6.017199  6.781139
123  1 0.0000 14.590933 13.237839  0.001521
124  1 0.0000 14.590933 13.237839  6.781139
125  1 0.0000 14.590933 20.458478  0.001521
126  1 0.0000 14.590933 20.458478  6.781139
127  1 0.0000 14.590933 27.679118  0.001521
128  1 0.0000 14.590933 27.679118  6.781139
129  2 0.0000  2.084419  1.203440  5.944203
130  2 0.0000  2.084419  1.203440 12.723821
131  2 0.0000  2.084419  8.424079  5.944203
132  2 0.0000  2.084419  8.424079 12.723821
133  2 0.0000  2.084419 15.644719  5.944203
134  2 0.0000  2.084419 15.644719 12.723821
135  2 0.0000  2.084419 22.865358  5.944203
136  2 0.0000  2.084419 22.865358 12.723821
137  2 0.0000  6.253257  1.203440  5.944203
138  2 0.0000  6.253257  1.203440 12.723821
139  2 0.0000  6.253257  8.424079  5.944203
140  2 0.0000  6.253257  8.424079 12.723821
141  2 0.0000  6.253257 15.644719  5.944203
142  2 0.0000  6.253257 15.644719 12.723821
143  2 0.0000  6.253257 22.865358  5.944203
144  2 0.0000  6.253257 22.865358 12.723821
145  2 0.0000 10.422095  1.203440  5.944203
146  2 0.0000 10.422095  1.203440 12.723821
147  2 0.0000 10.422095  8.424079  5.944203
148  2 0.0000 10.422095  8.424079 12.723821
149  2 0.0000 10.422095 15.644719  5.944203
150  2 0.0000 10.422095 15.644719 12.723821
151  2 0.0000 10.422095 22.865358  5.944203
152  2 0.0000 10.422095 22.865358 12.723821
153  2 0.0000 14.590933  1.203440  5.944203
154  2 0.0000 14.590933  1.203440 12.723821
155  2 0.0000 14.590933  8.424079  5.944203
156  2 0.0000 14.590933  8.424079 12.723821
157  2 0.0000 14.590933 15.644719  5.944203
158  2 0.0000 14.590933 15.644719 12.723821
159  2 0.0000 14.590933 22.865358  5.944203
160  2 0.0000 14.590933 22.865358 12.723821
161  2 0.0000  0.000000  4.813760  5.944203
162  2 0.0000  0.000000  4.813760 12.723821
163  2 0.0000  0.000000 12.034399  5.944203
164  2 0.0000  0.000000 12.034399 12.723821
165  2 0.0000  0.000000 19.255038  5.944203
166  2 0.0000  0.000000 19.255038 12.723821
167  2 0.0000  0.000000 26.475678  5.944203
168  2 0.0000  0.000000 26.475678 12.723821
169  2 0.0000  4.168838  4.813760  5.944203
170  2 0.0000  4.168838  4.813760 12.723821
171  2 0.0000  4.168838 12.034399  5.944203
172  2 0.0000  4.168838 12.034399 12.723821
173  2 0.0000  4.168838 19.255038  5.944203
174  2 0.0000  4.168838 19.255038 12.723821
175  2 0.0000  4.168838 26.475678  5.944203
176  2 0.0000  4.168838 26.475678 12.723821
177  2 0.0000  8.337676  4.813760  5.944203
178  2 0.0000  8.337676  4.813760 12.723821
179  2 0.0000  8.337676 12.034399  5.944203
180  2 0.0000  8.337676 12.034399 12.723821
181  2 0.0000  8.337676 19.255038  5.944203
182  2 0.0000  8.337676 19.255038 12.723821
183  2 0.0000  8.337676 26.475678  5.944203
184  2 0.0000  8.337676 26.475678 12.723821
185  2 0.0000 12.506514  4.813760  5.944203
186  2 0.0000 12.506514  4.813760 12.723821
187  2 0.0000 12.506514 12.034399  5.944203
188  2 0.0000 12.506514 12.034399 12.723821
189  2 0.0000 12.506514 19.255038  5.944203
190  2 0.0000 12.506514 19.255038 12.723821
191  2 0.0000 12.506514 26.475678  5.944203
192  2 0.0000 12.506514 26.475678 12.723821
193  2 0.0000  0.000000  2.406880  2.554395
194  2 0.0000  0.000000  2.406880  9.334012
195  2 0.0000  0.000000  9.627519  2.554395
196  2 0.0000  0.000000  9.627519  9.334012
197  2 0.0000  0.000000 16.848159  2.554395
198  2 0.0000  0.000000 16.848159  9.334012
199  2 0.0000  0.000000 24.068798  2.554395
200  2 0.0000  0.000000 24.068798  9.334012
201  2 0.0000  4.168838  2.406880  2.554395
202  2 0.0000  4.168838  2.406880  9.334012
203  2 0.0000  4.168838  9.627519  2.554395
204  2 0.0000  4.168838  9.627519  9.334012
205  2 0.0000  4.168838 16.848159  2.554395
206  2 0.0000  4.168838 16.848159  9.334012
207  2 0.0000  4.168838 24.068798  2.554395
208  2 0.0000  4.168838 24.068798  9.334012
209  2 0.0000  8.337676  2.406880  2.554395
210  2 0.0000  8.337676  2.406880  9.334012
211  2 0.0000  8.337676  9.627519  2.554395
212  2 0.0000  8.337676  9.627519  9.334012
213  2 0.0000  8.337676 16.848159  2.554395
214  2 0.0000  8.337676 16.848159  9.334012
215  2 0.0000  8.337676 24.068798  2.554395
216  2 0.0000  8.337676 24.068798  9.334012
217  2 0.0000 12.506514  2.406880  2.554395
218  2 0.0000 12.506514  2.406880  9.334012
219  2 0.0000 12.506514  9.627519  2.554395
220  2 0.0000 12.506514  9.627519  9.334012
221  2 0.0000 12.506514 16.848159  2.554395
222  2 0.0000 12.506514 16.848159  9.334012
223  2 0.0000 12.506514 24.068798  2.554395
224  2 0.0000 12.506514 24.068798  9.334012
225  2 0.0000  2.084419  6.017199  2.554395
226  2 0.0000  2.084419  6.017199  9.334012
227  2 0.0000  2.084419 13.237839  2.554395
228  2 0.0000  2.084419 13.237839  9.334012
229  2 0.0000  2.084419 20.458478  2.554395
230  2 0.0000  2.084419 20.458478  9.334012
231  2 0.0000  2.084419 27.679118  2.554395
232  2 0.0000  2.084419 27.679118  9.334012
233  2 0.0000  6.253257  6.017199  2.554395
234  2 0.0000  6.253257  6.017199  9.334012
235  2 0.0000  6.253257 13.237839  2.554395
236  2 0.0000  6.253257 13.237839  9.334012
237  2 0.0000  6.253257 20.458478  2.554395
238  2 0.0000  6.253257 20.458478  9.334012
239  2 0.0000  6.253257 27.679118  2.554395
240  2 0.0000  6.253257 27.679118  9.334012
241  2 0.0000 10.422095  6.017199  2.554395
242  2 0.0000 10.422095  6.017199  9.334012
243  2 0.0000 10.422095 13.237839  2.554395
244  2 0.0000 10.422095 13.237839  9.334012
245  2 0.0000 10.422095 20.458478  2.554395
246  2 0.0000 10.422095 20.458478  9.334012
247  2 0.0000 10.422095 27.679118  2.554395
248  2 0.0000 10.422095 27.679118  9.334012
249  2 0.0000 14.590933  6.017199  2.554395
250  2 0.0000 14.590933  6.017199  9.334012
251  2 0.0000 14.590933 13.237839  2.554395
252  2 0.0000 14.590933 13.237839  9.334012
253  2 0.0000 14.590933 20.458478  2.554395
254  2 0.0000 14.590933 20.458478  9.334012
255  2 0.0000 14.590933 27.679118  2.554395
256  2 0.0000 14.590933 27.679118  9.334012

