Generated by pymatgen.io.lammps.data.LammpsData

2000  atoms

   3  atom types

0.000000 24.317405  xlo xhi
0.000000 30.474080  ylo yhi
0.000000 56.144075  zlo zhi

Masses

1  24.30500
2  47.86700
3  92.90638

Atoms

1     1 0.0000  0.000000  1.572310  0.838826
2     1 0.0000  0.000000  1.572310 12.067641
3     1 0.0000  0.000000  1.572310 23.296456
4     1 0.0000  0.000000  1.572310 34.525271
5     1 0.0000  0.000000  1.572310 45.754086
6     1 0.0000  0.000000  7.667126  0.838826
7     1 0.0000  0.000000  7.667126 12.067641
8     1 0.0000  0.000000  7.667126 23.296456
9     1 0.0000  0.000000  7.667126 34.525271
10    1 0.0000  0.000000  7.667126 45.754086
11    1 0.0000  0.000000 13.761942  0.838826
12    1 0.0000  0.000000 13.761942 12.067641
13    1 0.0000  0.000000 13.761942 23.296456
14    1 0.0000  0.000000 13.761942 34.525271
15    1 0.0000  0.000000 13.761942 45.754086
16    1 0.0000  0.000000 19.856758  0.838826
17    1 0.0000  0.000000 19.856758 12.067641
18    1 0.0000  0.000000 19.856758 23.296456
19    1 0.0000  0.000000 19.856758 34.525271
20    1 0.0000  0.000000 19.856758 45.754086
21    1 0.0000  0.000000 25.951574  0.838826
22    1 0.0000  0.000000 25.951574 12.067641
23    1 0.0000  0.000000 25.951574 23.296456
24    1 0.0000  0.000000 25.951574 34.525271
25    1 0.0000  0.000000 25.951574 45.754086
26    1 0.0000  4.863481  1.572310  0.838826
27    1 0.0000  4.863481  1.572310 12.067641
28    1 0.0000  4.863481  1.572310 23.296456
29    1 0.0000  4.863481  1.572310 34.525271
30    1 0.0000  4.863481  1.572310 45.754086
31    1 0.0000  4.863481  7.667126  0.838826
32    1 0.0000  4.863481  7.667126 12.067641
33    1 0.0000  4.863481  7.667126 23.296456
34    1 0.0000  4.863481  7.667126 34.525271
35    1 0.0000  4.863481  7.667126 45.754086
36    1 0.0000  4.863481 13.761942  0.838826
37    1 0.0000  4.863481 13.761942 12.067641
38    1 0.0000  4.863481 13.761942 23.296456
39    1 0.0000  4.863481 13.761942 34.525271
40    1 0.0000  4.863481 13.761942 45.754086
41    1 0.0000  4.863481 19.856758  0.838826
42    1 0.0000  4.863481 19.856758 12.067641
43    1 0.0000  4.863481 19.856758 23.296456
44    1 0.0000  4.863481 19.856758 34.525271
45    1 0.0000  4.863481 19.856758 45.754086
46    1 0.0000  4.863481 25.951574  0.838826
47    1 0.0000  4.863481 25.951574 12.067641
48    1 0.0000  4.863481 25.951574 23.296456
49    1 0.0000  4.863481 25.951574 34.525271
50    1 0.0000  4.863481 25.951574 45.754086
51    1 0.0000  9.726962  1.572310  0.838826
52    1 0.0000  9.726962  1.572310 12.067641
53    1 0.0000  9.726962  1.572310 23.296456
54    1 0.0000  9.726962  1.572310 34.525271
55    1 0.0000  9.726962  1.572310 45.754086
56    1 0.0000  9.726962  7.667126  0.838826
57    1 0.0000  9.726962  7.667126 12.067641
58    1 0.0000  9.726962  7.667126 23.296456
59    1 0.0000  9.726962  7.667126 34.525271
60    1 0.0000  9.726962  7.667126 45.754086
61    1 0.0000  9.726962 13.761942  0.838826
62    1 0.0000  9.726962 13.761942 12.067641
63    1 0.0000  9.726962 13.761942 23.296456
64    1 0.0000  9.726962 13.761942 34.525271
65    1 0.0000  9.726962 13.761942 45.754086
66    1 0.0000  9.726962 19.856758  0.838826
67    1 0.0000  9.726962 19.856758 12.067641
68    1 0.0000  9.726962 19.856758 23.296456
69    1 0.0000  9.726962 19.856758 34.525271
70    1 0.0000  9.726962 19.856758 45.754086
71    1 0.0000  9.726962 25.951574  0.838826
72    1 0.0000  9.726962 25.951574 12.067641
73    1 0.0000  9.726962 25.951574 23.296456
74    1 0.0000  9.726962 25.951574 34.525271
75    1 0.0000  9.726962 25.951574 45.754086
76    1 0.0000 14.590443  1.572310  0.838826
77    1 0.0000 14.590443  1.572310 12.067641
78    1 0.0000 14.590443  1.572310 23.296456
79    1 0.0000 14.590443  1.572310 34.525271
80    1 0.0000 14.590443  1.572310 45.754086
81    1 0.0000 14.590443  7.667126  0.838826
82    1 0.0000 14.590443  7.667126 12.067641
83    1 0.0000 14.590443  7.667126 23.296456
84    1 0.0000 14.590443  7.667126 34.525271
85    1 0.0000 14.590443  7.667126 45.754086
86    1 0.0000 14.590443 13.761942  0.838826
87    1 0.0000 14.590443 13.761942 12.067641
88    1 0.0000 14.590443 13.761942 23.296456
89    1 0.0000 14.590443 13.761942 34.525271
90    1 0.0000 14.590443 13.761942 45.754086
91    1 0.0000 14.590443 19.856758  0.838826
92    1 0.0000 14.590443 19.856758 12.067641
93    1 0.0000 14.590443 19.856758 23.296456
94    1 0.0000 14.590443 19.856758 34.525271
95    1 0.0000 14.590443 19.856758 45.754086
96    1 0.0000 14.590443 25.951574  0.838826
97    1 0.0000 14.590443 25.951574 12.067641
98    1 0.0000 14.590443 25.951574 23.296456
99    1 0.0000 14.590443 25.951574 34.525271
100   1 0.0000 14.590443 25.951574 45.754086
101   1 0.0000 19.453924  1.572310  0.838826
102   1 0.0000 19.453924  1.572310 12.067641
103   1 0.0000 19.453924  1.572310 23.296456
104   1 0.0000 19.453924  1.572310 34.525271
105   1 0.0000 19.453924  1.572310 45.754086
106   1 0.0000 19.453924  7.667126  0.838826
107   1 0.0000 19.453924  7.667126 12.067641
108   1 0.0000 19.453924  7.667126 23.296456
109   1 0.0000 19.453924  7.667126 34.525271
110   1 0.0000 19.453924  7.667126 45.754086
111   1 0.0000 19.453924 13.761942  0.838826
112   1 0.0000 19.453924 13.761942 12.067641
113   1 0.0000 19.453924 13.761942 23.296456
114   1 0.0000 19.453924 13.761942 34.525271
115   1 0.0000 19.453924 13.761942 45.754086
116   1 0.0000 19.453924 19.856758  0.838826
117   1 0.0000 19.453924 19.856758 12.067641
118   1 0.0000 19.453924 19.856758 23.296456
119   1 0.0000 19.453924 19.856758 34.525271
120   1 0.0000 19.453924 19.856758 45.754086
121   1 0.0000 19.453924 25.951574  0.838826
122   1 0.0000 19.453924 25.951574 12.067641
123   1 0.0000 19.453924 25.951574 23.296456
124   1 0.0000 19.453924 25.951574 34.525271
125   1 0.0000 19.453924 25.951574 45.754086
126   1 0.0000  0.000000  4.522506  0.838826
127   1 0.0000  0.000000  4.522506 12.067641
128   1 0.0000  0.000000  4.522506 23.296456
129   1 0.0000  0.000000  4.522506 34.525271
130   1 0.0000  0.000000  4.522506 45.754086
131   1 0.0000  0.000000 10.617322  0.838826
132   1 0.0000  0.000000 10.617322 12.067641
133   1 0.0000  0.000000 10.617322 23.296456
134   1 0.0000  0.000000 10.617322 34.525271
135   1 0.0000  0.000000 10.617322 45.754086
136   1 0.0000  0.000000 16.712138  0.838826
137   1 0.0000  0.000000 16.712138 12.067641
138   1 0.0000  0.000000 16.712138 23.296456
139   1 0.0000  0.000000 16.712138 34.525271
140   1 0.0000  0.000000 16.712138 45.754086
141   1 0.0000  0.000000 22.806954  0.838826
142   1 0.0000  0.000000 22.806954 12.067641
143   1 0.0000  0.000000 22.806954 23.296456
144   1 0.0000  0.000000 22.806954 34.525271
145   1 0.0000  0.000000 22.806954 45.754086
146   1 0.0000  0.000000 28.901770  0.838826
147   1 0.0000  0.000000 28.901770 12.067641
148   1 0.0000  0.000000 28.901770 23.296456
149   1 0.0000  0.000000 28.901770 34.525271
150   1 0.0000  0.000000 28.901770 45.754086
151   1 0.0000  4.863481  4.522506  0.838826
152   1 0.0000  4.863481  4.522506 12.067641
153   1 0.0000  4.863481  4.522506 23.296456
154   1 0.0000  4.863481  4.522506 34.525271
155   1 0.0000  4.863481  4.522506 45.754086
156   1 0.0000  4.863481 10.617322  0.838826
157   1 0.0000  4.863481 10.617322 12.067641
158   1 0.0000  4.863481 10.617322 23.296456
159   1 0.0000  4.863481 10.617322 34.525271
160   1 0.0000  4.863481 10.617322 45.754086
161   1 0.0000  4.863481 16.712138  0.838826
162   1 0.0000  4.863481 16.712138 12.067641
163   1 0.0000  4.863481 16.712138 23.296456
164   1 0.0000  4.863481 16.712138 34.525271
165   1 0.0000  4.863481 16.712138 45.754086
166   1 0.0000  4.863481 22.806954  0.838826
167   1 0.0000  4.863481 22.806954 12.067641
168   1 0.0000  4.863481 22.806954 23.296456
169   1 0.0000  4.863481 22.806954 34.525271
170   1 0.0000  4.863481 22.806954 45.754086
171   1 0.0000  4.863481 28.901770  0.838826
172   1 0.0000  4.863481 28.901770 12.067641
173   1 0.0000  4.863481 28.901770 23.296456
174   1 0.0000  4.863481 28.901770 34.525271
175   1 0.0000  4.863481 28.901770 45.754086
176   1 0.0000  9.726962  4.522506  0.838826
177   1 0.0000  9.726962  4.522506 12.067641
178   1 0.0000  9.726962  4.522506 23.296456
179   1 0.0000  9.726962  4.522506 34.525271
180   1 0.0000  9.726962  4.522506 45.754086
181   1 0.0000  9.726962 10.617322  0.838826
182   1 0.0000  9.726962 10.617322 12.067641
183   1 0.0000  9.726962 10.617322 23.296456
184   1 0.0000  9.726962 10.617322 34.525271
185   1 0.0000  9.726962 10.617322 45.754086
186   1 0.0000  9.726962 16.712138  0.838826
187   1 0.0000  9.726962 16.712138 12.067641
188   1 0.0000  9.726962 16.712138 23.296456
189   1 0.0000  9.726962 16.712138 34.525271
190   1 0.0000  9.726962 16.712138 45.754086
191   1 0.0000  9.726962 22.806954  0.838826
192   1 0.0000  9.726962 22.806954 12.067641
193   1 0.0000  9.726962 22.806954 23.296456
194   1 0.0000  9.726962 22.806954 34.525271
195   1 0.0000  9.726962 22.806954 45.754086
196   1 0.0000  9.726962 28.901770  0.838826
197   1 0.0000  9.726962 28.901770 12.067641
198   1 0.0000  9.726962 28.901770 23.296456
199   1 0.0000  9.726962 28.901770 34.525271
200   1 0.0000  9.726962 28.901770 45.754086
201   1 0.0000 14.590443  4.522506  0.838826
202   1 0.0000 14.590443  4.522506 12.067641
203   1 0.0000 14.590443  4.522506 23.296456
204   1 0.0000 14.590443  4.522506 34.525271
205   1 0.0000 14.590443  4.522506 45.754086
206   1 0.0000 14.590443 10.617322  0.838826
207   1 0.0000 14.590443 10.617322 12.067641
208   1 0.0000 14.590443 10.617322 23.296456
209   1 0.0000 14.590443 10.617322 34.525271
210   1 0.0000 14.590443 10.617322 45.754086
211   1 0.0000 14.590443 16.712138  0.838826
212   1 0.0000 14.590443 16.712138 12.067641
213   1 0.0000 14.590443 16.712138 23.296456
214   1 0.0000 14.590443 16.712138 34.525271
215   1 0.0000 14.590443 16.712138 45.754086
216   1 0.0000 14.590443 22.806954  0.838826
217   1 0.0000 14.590443 22.806954 12.067641
218   1 0.0000 14.590443 22.806954 23.296456
219   1 0.0000 14.590443 22.806954 34.525271
220   1 0.0000 14.590443 22.806954 45.754086
221   1 0.0000 14.590443 28.901770  0.838826
222   1 0.0000 14.590443 28.901770 12.067641
223   1 0.0000 14.590443 28.901770 23.296456
224   1 0.0000 14.590443 28.901770 34.525271
225   1 0.0000 14.590443 28.901770 45.754086
226   1 0.0000 19.453924  4.522506  0.838826
227   1 0.0000 19.453924  4.522506 12.067641
228   1 0.0000 19.453924  4.522506 23.296456
229   1 0.0000 19.453924  4.522506 34.525271
230   1 0.0000 19.453924  4.522506 45.754086
231   1 0.0000 19.453924 10.617322  0.838826
232   1 0.0000 19.453924 10.617322 12.067641
233   1 0.0000 19.453924 10.617322 23.296456
234   1 0.0000 19.453924 10.617322 34.525271
235   1 0.0000 19.453924 10.617322 45.754086
236   1 0.0000 19.453924 16.712138  0.838826
237   1 0.0000 19.453924 16.712138 12.067641
238   1 0.0000 19.453924 16.712138 23.296456
239   1 0.0000 19.453924 16.712138 34.525271
240   1 0.0000 19.453924 16.712138 45.754086
241   1 0.0000 19.453924 22.806954  0.838826
242   1 0.0000 19.453924 22.806954 12.067641
243   1 0.0000 19.453924 22.806954 23.296456
244   1 0.0000 19.453924 22.806954 34.525271
245   1 0.0000 19.453924 22.806954 45.754086
246   1 0.0000 19.453924 28.901770  0.838826
247   1 0.0000 19.453924 28.901770 12.067641
248   1 0.0000 19.453924 28.901770 23.296456
249   1 0.0000 19.453924 28.901770 34.525271
250   1 0.0000 19.453924 28.901770 45.754086
251   1 0.0000  0.000000  0.000000  3.665793
252   1 0.0000  0.000000  0.000000 14.894608
253   1 0.0000  0.000000  0.000000 26.123423
254   1 0.0000  0.000000  0.000000 37.352238
255   1 0.0000  0.000000  0.000000 48.581053
256   1 0.0000  0.000000  6.094816  3.665793
257   1 0.0000  0.000000  6.094816 14.894608
258   1 0.0000  0.000000  6.094816 26.123423
259   1 0.0000  0.000000  6.094816 37.352238
260   1 0.0000  0.000000  6.094816 48.581053
261   1 0.0000  0.000000 12.189632  3.665793
262   1 0.0000  0.000000 12.189632 14.894608
263   1 0.0000  0.000000 12.189632 26.123423
264   1 0.0000  0.000000 12.189632 37.352238
265   1 0.0000  0.000000 12.189632 48.581053
266   1 0.0000  0.000000 18.284448  3.665793
267   1 0.0000  0.000000 18.284448 14.894608
268   1 0.0000  0.000000 18.284448 26.123423
269   1 0.0000  0.000000 18.284448 37.352238
270   1 0.0000  0.000000 18.284448 48.581053
271   1 0.0000  0.000000 24.379264  3.665793
272   1 0.0000  0.000000 24.379264 14.894608
273   1 0.0000  0.000000 24.379264 26.123423
274   1 0.0000  0.000000 24.379264 37.352238
275   1 0.0000  0.000000 24.379264 48.581053
276   1 0.0000  4.863481  0.000000  3.665793
277   1 0.0000  4.863481  0.000000 14.894608
278   1 0.0000  4.863481  0.000000 26.123423
279   1 0.0000  4.863481  0.000000 37.352238
280   1 0.0000  4.863481  0.000000 48.581053
281   1 0.0000  4.863481  6.094816  3.665793
282   1 0.0000  4.863481  6.094816 14.894608
283   1 0.0000  4.863481  6.094816 26.123423
284   1 0.0000  4.863481  6.094816 37.352238
285   1 0.0000  4.863481  6.094816 48.581053
286   1 0.0000  4.863481 12.189632  3.665793
287   1 0.0000  4.863481 12.189632 14.894608
288   1 0.0000  4.863481 12.189632 26.123423
289   1 0.0000  4.863481 12.189632 37.352238
290   1 0.0000  4.863481 12.189632 48.581053
291   1 0.0000  4.863481 18.284448  3.665793
292   1 0.0000  4.863481 18.284448 14.894608
293   1 0.0000  4.863481 18.284448 26.123423
294   1 0.0000  4.863481 18.284448 37.352238
295   1 0.0000  4.863481 18.284448 48.581053
296   1 0.0000  4.863481 24.379264  3.665793
297   1 0.0000  4.863481 24.379264 14.894608
298   1 0.0000  4.863481 24.379264 26.123423
299   1 0.0000  4.863481 24.379264 37.352238
300   1 0.0000  4.863481 24.379264 48.581053
301   1 0.0000  9.726962  0.000000  3.665793
302   1 0.0000  9.726962  0.000000 14.894608
303   1 0.0000  9.726962  0.000000 26.123423
304   1 0.0000  9.726962  0.000000 37.352238
305   1 0.0000  9.726962  0.000000 48.581053
306   1 0.0000  9.726962  6.094816  3.665793
307   1 0.0000  9.726962  6.094816 14.894608
308   1 0.0000  9.726962  6.094816 26.123423
309   1 0.0000  9.726962  6.094816 37.352238
310   1 0.0000  9.726962  6.094816 48.581053
311   1 0.0000  9.726962 12.189632  3.665793
312   1 0.0000  9.726962 12.189632 14.894608
313   1 0.0000  9.726962 12.189632 26.123423
314   1 0.0000  9.726962 12.189632 37.352238
315   1 0.0000  9.726962 12.189632 48.581053
316   1 0.0000  9.726962 18.284448  3.665793
317   1 0.0000  9.726962 18.284448 14.894608
318   1 0.0000  9.726962 18.284448 26.123423
319   1 0.0000  9.726962 18.284448 37.352238
320   1 0.0000  9.726962 18.284448 48.581053
321   1 0.0000  9.726962 24.379264  3.665793
322   1 0.0000  9.726962 24.379264 14.894608
323   1 0.0000  9.726962 24.379264 26.123423
324   1 0.0000  9.726962 24.379264 37.352238
325   1 0.0000  9.726962 24.379264 48.581053
326   1 0.0000 14.590443  0.000000  3.665793
327   1 0.0000 14.590443  0.000000 14.894608
328   1 0.0000 14.590443  0.000000 26.123423
329   1 0.0000 14.590443  0.000000 37.352238
330   1 0.0000 14.590443  0.000000 48.581053
331   1 0.0000 14.590443  6.094816  3.665793
332   1 0.0000 14.590443  6.094816 14.894608
333   1 0.0000 14.590443  6.094816 26.123423
334   1 0.0000 14.590443  6.094816 37.352238
335   1 0.0000 14.590443  6.094816 48.581053
336   1 0.0000 14.590443 12.189632  3.665793
337   1 0.0000 14.590443 12.189632 14.894608
338   1 0.0000 14.590443 12.189632 26.123423
339   1 0.0000 14.590443 12.189632 37.352238
340   1 0.0000 14.590443 12.189632 48.581053
341   1 0.0000 14.590443 18.284448  3.665793
342   1 0.0000 14.590443 18.284448 14.894608
343   1 0.0000 14.590443 18.284448 26.123423
344   1 0.0000 14.590443 18.284448 37.352238
345   1 0.0000 14.590443 18.284448 48.581053
346   1 0.0000 14.590443 24.379264  3.665793
347   1 0.0000 14.590443 24.379264 14.894608
348   1 0.0000 14.590443 24.379264 26.123423
349   1 0.0000 14.590443 24.379264 37.352238
350   1 0.0000 14.590443 24.379264 48.581053
351   1 0.0000 19.453924  0.000000  3.665793
352   1 0.0000 19.453924  0.000000 14.894608
353   1 0.0000 19.453924  0.000000 26.123423
354   1 0.0000 19.453924  0.000000 37.352238
355   1 0.0000 19.453924  0.000000 48.581053
356   1 0.0000 19.453924  6.094816  3.665793
357   1 0.0000 19.453924  6.094816 14.894608
358   1 0.0000 19.453924  6.094816 26.123423
359   1 0.0000 19.453924  6.094816 37.352238
360   1 0.0000 19.453924  6.094816 48.581053
361   1 0.0000 19.453924 12.189632  3.665793
362   1 0.0000 19.453924 12.189632 14.894608
363   1 0.0000 19.453924 12.189632 26.123423
364   1 0.0000 19.453924 12.189632 37.352238
365   1 0.0000 19.453924 12.189632 48.581053
366   1 0.0000 19.453924 18.284448  3.665793
367   1 0.0000 19.453924 18.284448 14.894608
368   1 0.0000 19.453924 18.284448 26.123423
369   1 0.0000 19.453924 18.284448 37.352238
370   1 0.0000 19.453924 18.284448 48.581053
371   1 0.0000 19.453924 24.379264  3.665793
372   1 0.0000 19.453924 24.379264 14.894608
373   1 0.0000 19.453924 24.379264 26.123423
374   1 0.0000 19.453924 24.379264 37.352238
375   1 0.0000 19.453924 24.379264 48.581053
376   1 0.0000  2.431741  4.530624  4.789157
377   1 0.0000  2.431741  4.530624 16.017972
378   1 0.0000  2.431741  4.530624 27.246787
379   1 0.0000  2.431741  4.530624 38.475602
380   1 0.0000  2.431741  4.530624 49.704417
381   1 0.0000  2.431741 10.625440  4.789157
382   1 0.0000  2.431741 10.625440 16.017972
383   1 0.0000  2.431741 10.625440 27.246787
384   1 0.0000  2.431741 10.625440 38.475602
385   1 0.0000  2.431741 10.625440 49.704417
386   1 0.0000  2.431741 16.720256  4.789157
387   1 0.0000  2.431741 16.720256 16.017972
388   1 0.0000  2.431741 16.720256 27.246787
389   1 0.0000  2.431741 16.720256 38.475602
390   1 0.0000  2.431741 16.720256 49.704417
391   1 0.0000  2.431741 22.815072  4.789157
392   1 0.0000  2.431741 22.815072 16.017972
393   1 0.0000  2.431741 22.815072 27.246787
394   1 0.0000  2.431741 22.815072 38.475602
395   1 0.0000  2.431741 22.815072 49.704417
396   1 0.0000  2.431741 28.909888  4.789157
397   1 0.0000  2.431741 28.909888 16.017972
398   1 0.0000  2.431741 28.909888 27.246787
399   1 0.0000  2.431741 28.909888 38.475602
400   1 0.0000  2.431741 28.909888 49.704417
401   1 0.0000  7.295222  4.530624  4.789157
402   1 0.0000  7.295222  4.530624 16.017972
403   1 0.0000  7.295222  4.530624 27.246787
404   1 0.0000  7.295222  4.530624 38.475602
405   1 0.0000  7.295222  4.530624 49.704417
406   1 0.0000  7.295222 10.625440  4.789157
407   1 0.0000  7.295222 10.625440 16.017972
408   1 0.0000  7.295222 10.625440 27.246787
409   1 0.0000  7.295222 10.625440 38.475602
410   1 0.0000  7.295222 10.625440 49.704417
411   1 0.0000  7.295222 16.720256  4.789157
412   1 0.0000  7.295222 16.720256 16.017972
413   1 0.0000  7.295222 16.720256 27.246787
414   1 0.0000  7.295222 16.720256 38.475602
415   1 0.0000  7.295222 16.720256 49.704417
416   1 0.0000  7.295222 22.815072  4.789157
417   1 0.0000  7.295222 22.815072 16.017972
418   1 0.0000  7.295222 22.815072 27.246787
419   1 0.0000  7.295222 22.815072 38.475602
420   1 0.0000  7.295222 22.815072 49.704417
421   1 0.0000  7.295222 28.909888  4.789157
422   1 0.0000  7.295222 28.909888 16.017972
423   1 0.0000  7.295222 28.909888 27.246787
424   1 0.0000  7.295222 28.909888 38.475602
425   1 0.0000  7.295222 28.909888 49.704417
426   1 0.0000 12.158702  4.530624  4.789157
427   1 0.0000 12.158702  4.530624 16.017972
428   1 0.0000 12.158702  4.530624 27.246787
429   1 0.0000 12.158702  4.530624 38.475602
430   1 0.0000 12.158702  4.530624 49.704417
431   1 0.0000 12.158703 10.625440  4.789157
432   1 0.0000 12.158703 10.625440 16.017972
433   1 0.0000 12.158703 10.625440 27.246787
434   1 0.0000 12.158703 10.625440 38.475602
435   1 0.0000 12.158703 10.625440 49.704417
436   1 0.0000 12.158703 16.720256  4.789157
437   1 0.0000 12.158703 16.720256 16.017972
438   1 0.0000 12.158703 16.720256 27.246787
439   1 0.0000 12.158703 16.720256 38.475602
440   1 0.0000 12.158703 16.720256 49.704417
441   1 0.0000 12.158703 22.815072  4.789157
442   1 0.0000 12.158703 22.815072 16.017972
443   1 0.0000 12.158703 22.815072 27.246787
444   1 0.0000 12.158703 22.815072 38.475602
445   1 0.0000 12.158703 22.815072 49.704417
446   1 0.0000 12.158703 28.909888  4.789157
447   1 0.0000 12.158703 28.909888 16.017972
448   1 0.0000 12.158703 28.909888 27.246787
449   1 0.0000 12.158703 28.909888 38.475602
450   1 0.0000 12.158703 28.909888 49.704417
451   1 0.0000 17.022184  4.530624  4.789157
452   1 0.0000 17.022184  4.530624 16.017972
453   1 0.0000 17.022184  4.530624 27.246787
454   1 0.0000 17.022184  4.530624 38.475602
455   1 0.0000 17.022184  4.530624 49.704417
456   1 0.0000 17.022184 10.625440  4.789157
457   1 0.0000 17.022184 10.625440 16.017972
458   1 0.0000 17.022184 10.625440 27.246787
459   1 0.0000 17.022184 10.625440 38.475602
460   1 0.0000 17.022184 10.625440 49.704417
461   1 0.0000 17.022184 16.720256  4.789157
462   1 0.0000 17.022184 16.720256 16.017972
463   1 0.0000 17.022184 16.720256 27.246787
464   1 0.0000 17.022184 16.720256 38.475602
465   1 0.0000 17.022184 16.720256 49.704417
466   1 0.0000 17.022184 22.815072  4.789157
467   1 0.0000 17.022184 22.815072 16.017972
468   1 0.0000 17.022184 22.815072 27.246787
469   1 0.0000 17.022184 22.815072 38.475602
470   1 0.0000 17.022184 22.815072 49.704417
471   1 0.0000 17.022184 28.909888  4.789157
472   1 0.0000 17.022184 28.909888 16.017972
473   1 0.0000 17.022184 28.909888 27.246787
474   1 0.0000 17.022184 28.909888 38.475602
475   1 0.0000 17.022184 28.909888 49.704417
476   1 0.0000 21.885664  4.530624  4.789157
477   1 0.0000 21.885664  4.530624 16.017972
478   1 0.0000 21.885664  4.530624 27.246787
479   1 0.0000 21.885664  4.530624 38.475602
480   1 0.0000 21.885664  4.530624 49.704417
481   1 0.0000 21.885664 10.625440  4.789157
482   1 0.0000 21.885664 10.625440 16.017972
483   1 0.0000 21.885664 10.625440 27.246787
484   1 0.0000 21.885664 10.625440 38.475602
485   1 0.0000 21.885664 10.625440 49.704417
486   1 0.0000 21.885665 16.720256  4.789157
487   1 0.0000 21.885665 16.720256 16.017972
488   1 0.0000 21.885665 16.720256 27.246787
489   1 0.0000 21.885665 16.720256 38.475602
490   1 0.0000 21.885665 16.720256 49.704417
491   1 0.0000 21.885665 22.815072  4.789157
492   1 0.0000 21.885665 22.815072 16.017972
493   1 0.0000 21.885665 22.815072 27.246787
494   1 0.0000 21.885665 22.815072 38.475602
495   1 0.0000 21.885665 22.815072 49.704417
496   1 0.0000 21.885664 28.909888  4.789157
497   1 0.0000 21.885664 28.909888 16.017972
498   1 0.0000 21.885664 28.909888 27.246787
499   1 0.0000 21.885665 28.909888 38.475602
500   1 0.0000 21.885665 28.909888 49.704417
501   1 0.0000  2.431741  1.564192  4.789157
502   1 0.0000  2.431741  1.564192 16.017972
503   1 0.0000  2.431741  1.564192 27.246787
504   1 0.0000  2.431741  1.564192 38.475602
505   1 0.0000  2.431741  1.564192 49.704417
506   1 0.0000  2.431741  7.659008  4.789157
507   1 0.0000  2.431741  7.659008 16.017972
508   1 0.0000  2.431741  7.659008 27.246787
509   1 0.0000  2.431741  7.659008 38.475602
510   1 0.0000  2.431741  7.659008 49.704417
511   1 0.0000  2.431741 13.753824  4.789157
512   1 0.0000  2.431741 13.753824 16.017972
513   1 0.0000  2.431741 13.753824 27.246787
514   1 0.0000  2.431741 13.753824 38.475602
515   1 0.0000  2.431741 13.753824 49.704417
516   1 0.0000  2.431741 19.848640  4.789157
517   1 0.0000  2.431741 19.848640 16.017972
518   1 0.0000  2.431741 19.848640 27.246787
519   1 0.0000  2.431741 19.848640 38.475602
520   1 0.0000  2.431741 19.848640 49.704417
521   1 0.0000  2.431741 25.943456  4.789157
522   1 0.0000  2.431741 25.943456 16.017972
523   1 0.0000  2.431741 25.943456 27.246787
524   1 0.0000  2.431741 25.943456 38.475602
525   1 0.0000  2.431741 25.943456 49.704417
526   1 0.0000  7.295222  1.564192  4.789157
527   1 0.0000  7.295222  1.564192 16.017972
528   1 0.0000  7.295222  1.564192 27.246787
529   1 0.0000  7.295222  1.564192 38.475602
530   1 0.0000  7.295222  1.564192 49.704417
531   1 0.0000  7.295222  7.659008  4.789157
532   1 0.0000  7.295222  7.659008 16.017972
533   1 0.0000  7.295222  7.659008 27.246787
534   1 0.0000  7.295222  7.659008 38.475602
535   1 0.0000  7.295222  7.659008 49.704417
536   1 0.0000  7.295222 13.753824  4.789157
537   1 0.0000  7.295222 13.753824 16.017972
538   1 0.0000  7.295222 13.753824 27.246787
539   1 0.0000  7.295222 13.753824 38.475602
540   1 0.0000  7.295222 13.753824 49.704417
541   1 0.0000  7.295222 19.848640  4.789157
542   1 0.0000  7.295222 19.848640 16.017972
543   1 0.0000  7.295222 19.848640 27.246787
544   1 0.0000  7.295222 19.848640 38.475602
545   1 0.0000  7.295222 19.848640 49.704417
546   1 0.0000  7.295222 25.943456  4.789157
547   1 0.0000  7.295222 25.943456 16.017972
548   1 0.0000  7.295222 25.943456 27.246787
549   1 0.0000  7.295222 25.943456 38.475602
550   1 0.0000  7.295222 25.943456 49.704417
551   1 0.0000 12.158702  1.564192  4.789157
552   1 0.0000 12.158702  1.564192 16.017972
553   1 0.0000 12.158702  1.564192 27.246787
554   1 0.0000 12.158702  1.564192 38.475602
555   1 0.0000 12.158703  1.564192 49.704417
556   1 0.0000 12.158702  7.659008  4.789157
557   1 0.0000 12.158703  7.659008 16.017972
558   1 0.0000 12.158703  7.659008 27.246787
559   1 0.0000 12.158703  7.659008 38.475602
560   1 0.0000 12.158703  7.659008 49.704417
561   1 0.0000 12.158702 13.753824  4.789157
562   1 0.0000 12.158702 13.753824 16.017972
563   1 0.0000 12.158702 13.753824 27.246787
564   1 0.0000 12.158702 13.753824 38.475602
565   1 0.0000 12.158703 13.753824 49.704417
566   1 0.0000 12.158703 19.848640  4.789157
567   1 0.0000 12.158703 19.848640 16.017972
568   1 0.0000 12.158703 19.848640 27.246787
569   1 0.0000 12.158703 19.848640 38.475602
570   1 0.0000 12.158703 19.848640 49.704417
571   1 0.0000 12.158703 25.943456  4.789157
572   1 0.0000 12.158703 25.943456 16.017972
573   1 0.0000 12.158703 25.943456 27.246787
574   1 0.0000 12.158703 25.943456 38.475602
575   1 0.0000 12.158703 25.943456 49.704417
576   1 0.0000 17.022184  1.564192  4.789157
577   1 0.0000 17.022184  1.564192 16.017972
578   1 0.0000 17.022184  1.564192 27.246787
579   1 0.0000 17.022184  1.564192 38.475602
580   1 0.0000 17.022184  1.564192 49.704417
581   1 0.0000 17.022184  7.659008  4.789157
582   1 0.0000 17.022184  7.659008 16.017972
583   1 0.0000 17.022184  7.659008 27.246787
584   1 0.0000 17.022184  7.659008 38.475602
585   1 0.0000 17.022184  7.659008 49.704417
586   1 0.0000 17.022184 13.753824  4.789157
587   1 0.0000 17.022184 13.753824 16.017972
588   1 0.0000 17.022184 13.753824 27.246787
589   1 0.0000 17.022184 13.753824 38.475602
590   1 0.0000 17.022184 13.753824 49.704417
591   1 0.0000 17.022184 19.848640  4.789157
592   1 0.0000 17.022184 19.848640 16.017972
593   1 0.0000 17.022184 19.848640 27.246787
594   1 0.0000 17.022184 19.848640 38.475602
595   1 0.0000 17.022184 19.848640 49.704417
596   1 0.0000 17.022184 25.943456  4.789157
597   1 0.0000 17.022184 25.943456 16.017972
598   1 0.0000 17.022184 25.943456 27.246787
599   1 0.0000 17.022184 25.943456 38.475602
600   1 0.0000 17.022184 25.943456 49.704417
601   1 0.0000 21.885664  1.564192  4.789157
602   1 0.0000 21.885664  1.564192 16.017972
603   1 0.0000 21.885664  1.564192 27.246787
604   1 0.0000 21.885664  1.564192 38.475602
605   1 0.0000 21.885664  1.564192 49.704417
606   1 0.0000 21.885664  7.659008  4.789157
607   1 0.0000 21.885664  7.659008 16.017972
608   1 0.0000 21.885664  7.659008 27.246787
609   1 0.0000 21.885664  7.659008 38.475602
610   1 0.0000 21.885664  7.659008 49.704417
611   1 0.0000 21.885665 13.753824  4.789157
612   1 0.0000 21.885665 13.753824 16.017972
613   1 0.0000 21.885665 13.753824 27.246787
614   1 0.0000 21.885665 13.753824 38.475602
615   1 0.0000 21.885665 13.753824 49.704417
616   1 0.0000 21.885665 19.848640  4.789157
617   1 0.0000 21.885665 19.848640 16.017972
618   1 0.0000 21.885665 19.848640 27.246787
619   1 0.0000 21.885665 19.848640 38.475602
620   1 0.0000 21.885665 19.848640 49.704417
621   1 0.0000 21.885664 25.943456  4.789157
622   1 0.0000 21.885664 25.943456 16.017972
623   1 0.0000 21.885664 25.943456 27.246787
624   1 0.0000 21.885665 25.943456 38.475602
625   1 0.0000 21.885665 25.943456 49.704417
626   1 0.0000  2.431741  0.000000  1.939654
627   1 0.0000  2.431741  0.000000 13.168469
628   1 0.0000  2.431741  0.000000 24.397284
629   1 0.0000  2.431741  0.000000 35.626099
630   1 0.0000  2.431741  0.000000 46.854914
631   1 0.0000  2.431741  6.094816  1.939654
632   1 0.0000  2.431741  6.094816 13.168469
633   1 0.0000  2.431741  6.094816 24.397284
634   1 0.0000  2.431741  6.094816 35.626099
635   1 0.0000  2.431741  6.094816 46.854914
636   1 0.0000  2.431741 12.189632  1.939654
637   1 0.0000  2.431741 12.189632 13.168469
638   1 0.0000  2.431741 12.189632 24.397284
639   1 0.0000  2.431741 12.189632 35.626099
640   1 0.0000  2.431741 12.189632 46.854914
641   1 0.0000  2.431741 18.284448  1.939654
642   1 0.0000  2.431741 18.284448 13.168469
643   1 0.0000  2.431741 18.284448 24.397284
644   1 0.0000  2.431741 18.284448 35.626099
645   1 0.0000  2.431741 18.284448 46.854914
646   1 0.0000  2.431741 24.379264  1.939654
647   1 0.0000  2.431741 24.379264 13.168469
648   1 0.0000  2.431741 24.379264 24.397284
649   1 0.0000  2.431741 24.379264 35.626099
650   1 0.0000  2.431741 24.379264 46.854914
651   1 0.0000  7.295222  0.000000  1.939654
652   1 0.0000  7.295222  0.000000 13.168469
653   1 0.0000  7.295222  0.000000 24.397284
654   1 0.0000  7.295222  0.000000 35.626099
655   1 0.0000  7.295222  0.000000 46.854914
656   1 0.0000  7.295222  6.094816  1.939654
657   1 0.0000  7.295222  6.094816 13.168469
658   1 0.0000  7.295222  6.094816 24.397284
659   1 0.0000  7.295222  6.094816 35.626099
660   1 0.0000  7.295222  6.094816 46.854914
661   1 0.0000  7.295222 12.189632  1.939654
662   1 0.0000  7.295222 12.189632 13.168469
663   1 0.0000  7.295222 12.189632 24.397284
664   1 0.0000  7.295222 12.189632 35.626099
665   1 0.0000  7.295222 12.189632 46.854914
666   1 0.0000  7.295222 18.284448  1.939654
667   1 0.0000  7.295222 18.284448 13.168469
668   1 0.0000  7.295222 18.284448 24.397284
669   1 0.0000  7.295222 18.284448 35.626099
670   1 0.0000  7.295222 18.284448 46.854914
671   1 0.0000  7.295222 24.379264  1.939654
672   1 0.0000  7.295222 24.379264 13.168469
673   1 0.0000  7.295222 24.379264 24.397284
674   1 0.0000  7.295222 24.379264 35.626099
675   1 0.0000  7.295222 24.379264 46.854914
676   1 0.0000 12.158702  0.000000  1.939654
677   1 0.0000 12.158702  0.000000 13.168469
678   1 0.0000 12.158702  0.000000 24.397284
679   1 0.0000 12.158702  0.000000 35.626099
680   1 0.0000 12.158703  0.000000 46.854914
681   1 0.0000 12.158702  6.094816  1.939654
682   1 0.0000 12.158702  6.094816 13.168469
683   1 0.0000 12.158703  6.094816 24.397284
684   1 0.0000 12.158703  6.094816 35.626099
685   1 0.0000 12.158703  6.094816 46.854914
686   1 0.0000 12.158702 12.189632  1.939654
687   1 0.0000 12.158702 12.189632 13.168469
688   1 0.0000 12.158703 12.189632 24.397284
689   1 0.0000 12.158703 12.189632 35.626099
690   1 0.0000 12.158703 12.189632 46.854914
691   1 0.0000 12.158703 18.284448  1.939654
692   1 0.0000 12.158703 18.284448 13.168469
693   1 0.0000 12.158703 18.284448 24.397284
694   1 0.0000 12.158703 18.284448 35.626099
695   1 0.0000 12.158703 18.284448 46.854914
696   1 0.0000 12.158703 24.379264  1.939654
697   1 0.0000 12.158703 24.379264 13.168469
698   1 0.0000 12.158703 24.379264 24.397284
699   1 0.0000 12.158703 24.379264 35.626099
700   1 0.0000 12.158703 24.379264 46.854914
701   1 0.0000 17.022184  0.000000  1.939654
702   1 0.0000 17.022184  0.000000 13.168469
703   1 0.0000 17.022184  0.000000 24.397284
704   1 0.0000 17.022184  0.000000 35.626099
705   1 0.0000 17.022184  0.000000 46.854914
706   1 0.0000 17.022184  6.094816  1.939654
707   1 0.0000 17.022184  6.094816 13.168469
708   1 0.0000 17.022184  6.094816 24.397284
709   1 0.0000 17.022184  6.094816 35.626099
710   1 0.0000 17.022184  6.094816 46.854914
711   1 0.0000 17.022184 12.189632  1.939654
712   1 0.0000 17.022184 12.189632 13.168469
713   1 0.0000 17.022184 12.189632 24.397284
714   1 0.0000 17.022184 12.189632 35.626099
715   1 0.0000 17.022184 12.189632 46.854914
716   1 0.0000 17.022184 18.284448  1.939654
717   1 0.0000 17.022184 18.284448 13.168469
718   1 0.0000 17.022184 18.284448 24.397284
719   1 0.0000 17.022184 18.284448 35.626099
720   1 0.0000 17.022184 18.284448 46.854914
721   1 0.0000 17.022184 24.379264  1.939654
722   1 0.0000 17.022184 24.379264 13.168469
723   1 0.0000 17.022184 24.379264 24.397284
724   1 0.0000 17.022184 24.379264 35.626099
725   1 0.0000 17.022184 24.379264 46.854914
726   1 0.0000 21.885664  0.000000  1.939654
727   1 0.0000 21.885664  0.000000 13.168469
728   1 0.0000 21.885664  0.000000 24.397284
729   1 0.0000 21.885664  0.000000 35.626099
730   1 0.0000 21.885664  0.000000 46.854914
731   1 0.0000 21.885664  6.094816  1.939654
732   1 0.0000 21.885664  6.094816 13.168469
733   1 0.0000 21.885664  6.094816 24.397284
734   1 0.0000 21.885664  6.094816 35.626099
735   1 0.0000 21.885664  6.094816 46.854914
736   1 0.0000 21.885665 12.189632  1.939654
737   1 0.0000 21.885665 12.189632 13.168469
738   1 0.0000 21.885665 12.189632 24.397284
739   1 0.0000 21.885665 12.189632 35.626099
740   1 0.0000 21.885665 12.189632 46.854914
741   1 0.0000 21.885665 18.284448  1.939654
742   1 0.0000 21.885665 18.284448 13.168469
743   1 0.0000 21.885665 18.284448 24.397284
744   1 0.0000 21.885665 18.284448 35.626099
745   1 0.0000 21.885665 18.284448 46.854914
746   1 0.0000 21.885665 24.379264  1.939654
747   1 0.0000 21.885665 24.379264 13.168469
748   1 0.0000 21.885665 24.379264 24.397284
749   1 0.0000 21.885665 24.379264 35.626099
750   1 0.0000 21.885665 24.379264 46.854914
751   1 0.0000  0.000000  4.619718  6.453234
752   1 0.0000  0.000000  4.619718 17.682049
753   1 0.0000  0.000000  4.619718 28.910864
754   1 0.0000  0.000000  4.619718 40.139679
755   1 0.0000  0.000000  4.619718 51.368494
756   1 0.0000  0.000000 10.714534  6.453234
757   1 0.0000  0.000000 10.714534 17.682049
758   1 0.0000  0.000000 10.714534 28.910864
759   1 0.0000  0.000000 10.714534 40.139679
760   1 0.0000  0.000000 10.714534 51.368494
761   1 0.0000  0.000000 16.809350  6.453234
762   1 0.0000  0.000000 16.809350 17.682049
763   1 0.0000  0.000000 16.809350 28.910864
764   1 0.0000  0.000000 16.809350 40.139679
765   1 0.0000  0.000000 16.809350 51.368494
766   1 0.0000  0.000000 22.904166  6.453234
767   1 0.0000  0.000000 22.904166 17.682049
768   1 0.0000  0.000000 22.904166 28.910864
769   1 0.0000  0.000000 22.904166 40.139679
770   1 0.0000  0.000000 22.904166 51.368494
771   1 0.0000  0.000000 28.998982  6.453234
772   1 0.0000  0.000000 28.998982 17.682049
773   1 0.0000  0.000000 28.998982 28.910864
774   1 0.0000  0.000000 28.998982 40.139679
775   1 0.0000  0.000000 28.998982 51.368494
776   1 0.0000  4.863481  4.619718  6.453234
777   1 0.0000  4.863481  4.619718 17.682049
778   1 0.0000  4.863481  4.619718 28.910864
779   1 0.0000  4.863481  4.619718 40.139679
780   1 0.0000  4.863481  4.619718 51.368494
781   1 0.0000  4.863481 10.714534  6.453234
782   1 0.0000  4.863481 10.714534 17.682049
783   1 0.0000  4.863481 10.714534 28.910864
784   1 0.0000  4.863481 10.714534 40.139679
785   1 0.0000  4.863481 10.714534 51.368494
786   1 0.0000  4.863481 16.809350  6.453234
787   1 0.0000  4.863481 16.809350 17.682049
788   1 0.0000  4.863481 16.809350 28.910864
789   1 0.0000  4.863481 16.809350 40.139679
790   1 0.0000  4.863481 16.809350 51.368494
791   1 0.0000  4.863481 22.904166  6.453234
792   1 0.0000  4.863481 22.904166 17.682049
793   1 0.0000  4.863481 22.904166 28.910864
794   1 0.0000  4.863481 22.904166 40.139679
795   1 0.0000  4.863481 22.904166 51.368494
796   1 0.0000  4.863481 28.998982  6.453234
797   1 0.0000  4.863481 28.998982 17.682049
798   1 0.0000  4.863481 28.998982 28.910864
799   1 0.0000  4.863481 28.998982 40.139679
800   1 0.0000  4.863481 28.998982 51.368494
801   1 0.0000  9.726962  4.619718  6.453234
802   1 0.0000  9.726962  4.619718 17.682049
803   1 0.0000  9.726962  4.619718 28.910864
804   1 0.0000  9.726962  4.619718 40.139679
805   1 0.0000  9.726962  4.619718 51.368494
806   1 0.0000  9.726962 10.714534  6.453234
807   1 0.0000  9.726962 10.714534 17.682049
808   1 0.0000  9.726962 10.714534 28.910864
809   1 0.0000  9.726962 10.714534 40.139679
810   1 0.0000  9.726962 10.714534 51.368494
811   1 0.0000  9.726962 16.809350  6.453234
812   1 0.0000  9.726962 16.809350 17.682049
813   1 0.0000  9.726962 16.809350 28.910864
814   1 0.0000  9.726962 16.809350 40.139679
815   1 0.0000  9.726962 16.809350 51.368494
816   1 0.0000  9.726962 22.904166  6.453234
817   1 0.0000  9.726962 22.904166 17.682049
818   1 0.0000  9.726962 22.904166 28.910864
819   1 0.0000  9.726962 22.904166 40.139679
820   1 0.0000  9.726962 22.904166 51.368494
821   1 0.0000  9.726962 28.998982  6.453234
822   1 0.0000  9.726962 28.998982 17.682049
823   1 0.0000  9.726962 28.998982 28.910864
824   1 0.0000  9.726962 28.998982 40.139679
825   1 0.0000  9.726962 28.998982 51.368494
826   1 0.0000 14.590443  4.619718  6.453234
827   1 0.0000 14.590443  4.619718 17.682049
828   1 0.0000 14.590443  4.619718 28.910864
829   1 0.0000 14.590443  4.619718 40.139679
830   1 0.0000 14.590443  4.619718 51.368494
831   1 0.0000 14.590443 10.714534  6.453234
832   1 0.0000 14.590443 10.714534 17.682049
833   1 0.0000 14.590443 10.714534 28.910864
834   1 0.0000 14.590443 10.714534 40.139679
835   1 0.0000 14.590443 10.714534 51.368494
836   1 0.0000 14.590443 16.809350  6.453234
837   1 0.0000 14.590443 16.809350 17.682049
838   1 0.0000 14.590443 16.809350 28.910864
839   1 0.0000 14.590443 16.809350 40.139679
840   1 0.0000 14.590443 16.809350 51.368494
841   1 0.0000 14.590443 22.904166  6.453234
842   1 0.0000 14.590443 22.904166 17.682049
843   1 0.0000 14.590443 22.904166 28.910864
844   1 0.0000 14.590443 22.904166 40.139679
845   1 0.0000 14.590443 22.904166 51.368494
846   1 0.0000 14.590443 28.998982  6.453234
847   1 0.0000 14.590443 28.998982 17.682049
848   1 0.0000 14.590443 28.998982 28.910864
849   1 0.0000 14.590443 28.998982 40.139679
850   1 0.0000 14.590443 28.998982 51.368494
851   1 0.0000 19.453924  4.619718  6.453234
852   1 0.0000 19.453924  4.619718 17.682049
853   1 0.0000 19.453924  4.619718 28.910864
854   1 0.0000 19.453924  4.619718 40.139679
855   1 0.0000 19.453924  4.619718 51.368494
856   1 0.0000 19.453924 10.714534  6.453234
857   1 0.0000 19.453924 10.714534 17.682049
858   1 0.0000 19.453924 10.714534 28.910864
859   1 0.0000 19.453924 10.714534 40.139679
860   1 0.0000 19.453924 10.714534 51.368494
861   1 0.0000 19.453924 16.809350  6.453234
862   1 0.0000 19.453924 16.809350 17.682049
863   1 0.0000 19.453924 16.809350 28.910864
864   1 0.0000 19.453924 16.809350 40.139679
865   1 0.0000 19.453924 16.809350 51.368494
866   1 0.0000 19.453924 22.904166  6.453234
867   1 0.0000 19.453924 22.904166 17.682049
868   1 0.0000 19.453924 22.904166 28.910864
869   1 0.0000 19.453924 22.904166 40.139679
870   1 0.0000 19.453924 22.904166 51.368494
871   1 0.0000 19.453924 28.998982  6.453234
872   1 0.0000 19.453924 28.998982 17.682049
873   1 0.0000 19.453924 28.998982 28.910864
874   1 0.0000 19.453924 28.998982 40.139679
875   1 0.0000 19.453924 28.998982 51.368494
876   1 0.0000  0.000000  1.475098  6.453234
877   1 0.0000  0.000000  1.475098 17.682049
878   1 0.0000  0.000000  1.475098 28.910864
879   1 0.0000  0.000000  1.475098 40.139679
880   1 0.0000  0.000000  1.475098 51.368494
881   1 0.0000  0.000000  7.569914  6.453234
882   1 0.0000  0.000000  7.569914 17.682049
883   1 0.0000  0.000000  7.569914 28.910864
884   1 0.0000  0.000000  7.569914 40.139679
885   1 0.0000  0.000000  7.569914 51.368494
886   1 0.0000  0.000000 13.664730  6.453234
887   1 0.0000  0.000000 13.664730 17.682049
888   1 0.0000  0.000000 13.664730 28.910864
889   1 0.0000  0.000000 13.664730 40.139679
890   1 0.0000  0.000000 13.664730 51.368494
891   1 0.0000  0.000000 19.759546  6.453234
892   1 0.0000  0.000000 19.759546 17.682049
893   1 0.0000  0.000000 19.759546 28.910864
894   1 0.0000  0.000000 19.759546 40.139679
895   1 0.0000  0.000000 19.759546 51.368494
896   1 0.0000  0.000000 25.854362  6.453234
897   1 0.0000  0.000000 25.854362 17.682049
898   1 0.0000  0.000000 25.854362 28.910864
899   1 0.0000  0.000000 25.854362 40.139679
900   1 0.0000  0.000000 25.854362 51.368494
901   1 0.0000  4.863481  1.475098  6.453234
902   1 0.0000  4.863481  1.475098 17.682049
903   1 0.0000  4.863481  1.475098 28.910864
904   1 0.0000  4.863481  1.475098 40.139679
905   1 0.0000  4.863481  1.475098 51.368494
906   1 0.0000  4.863481  7.569914  6.453234
907   1 0.0000  4.863481  7.569914 17.682049
908   1 0.0000  4.863481  7.569914 28.910864
909   1 0.0000  4.863481  7.569914 40.139679
910   1 0.0000  4.863481  7.569914 51.368494
911   1 0.0000  4.863481 13.664730  6.453234
912   1 0.0000  4.863481 13.664730 17.682049
913   1 0.0000  4.863481 13.664730 28.910864
914   1 0.0000  4.863481 13.664730 40.139679
915   1 0.0000  4.863481 13.664730 51.368494
916   1 0.0000  4.863481 19.759546  6.453234
917   1 0.0000  4.863481 19.759546 17.682049
918   1 0.0000  4.863481 19.759546 28.910864
919   1 0.0000  4.863481 19.759546 40.139679
920   1 0.0000  4.863481 19.759546 51.368494
921   1 0.0000  4.863481 25.854362  6.453234
922   1 0.0000  4.863481 25.854362 17.682049
923   1 0.0000  4.863481 25.854362 28.910864
924   1 0.0000  4.863481 25.854362 40.139679
925   1 0.0000  4.863481 25.854362 51.368494
926   1 0.0000  9.726962  1.475098  6.453234
927   1 0.0000  9.726962  1.475098 17.682049
928   1 0.0000  9.726962  1.475098 28.910864
929   1 0.0000  9.726962  1.475098 40.139679
930   1 0.0000  9.726962  1.475098 51.368494
931   1 0.0000  9.726962  7.569914  6.453234
932   1 0.0000  9.726962  7.569914 17.682049
933   1 0.0000  9.726962  7.569914 28.910864
934   1 0.0000  9.726962  7.569914 40.139679
935   1 0.0000  9.726962  7.569914 51.368494
936   1 0.0000  9.726962 13.664730  6.453234
937   1 0.0000  9.726962 13.664730 17.682049
938   1 0.0000  9.726962 13.664730 28.910864
939   1 0.0000  9.726962 13.664730 40.139679
940   1 0.0000  9.726962 13.664730 51.368494
941   1 0.0000  9.726962 19.759546  6.453234
942   1 0.0000  9.726962 19.759546 17.682049
943   1 0.0000  9.726962 19.759546 28.910864
944   1 0.0000  9.726962 19.759546 40.139679
945   1 0.0000  9.726962 19.759546 51.368494
946   1 0.0000  9.726962 25.854362  6.453234
947   1 0.0000  9.726962 25.854362 17.682049
948   1 0.0000  9.726962 25.854362 28.910864
949   1 0.0000  9.726962 25.854362 40.139679
950   1 0.0000  9.726962 25.854362 51.368494
951   1 0.0000 14.590443  1.475098  6.453234
952   1 0.0000 14.590443  1.475098 17.682049
953   1 0.0000 14.590443  1.475098 28.910864
954   1 0.0000 14.590443  1.475098 40.139679
955   1 0.0000 14.590443  1.475098 51.368494
956   1 0.0000 14.590443  7.569914  6.453234
957   1 0.0000 14.590443  7.569914 17.682049
958   1 0.0000 14.590443  7.569914 28.910864
959   1 0.0000 14.590443  7.569914 40.139679
960   1 0.0000 14.590443  7.569914 51.368494
961   1 0.0000 14.590443 13.664730  6.453234
962   1 0.0000 14.590443 13.664730 17.682049
963   1 0.0000 14.590443 13.664730 28.910864
964   1 0.0000 14.590443 13.664730 40.139679
965   1 0.0000 14.590443 13.664730 51.368494
966   1 0.0000 14.590443 19.759546  6.453234
967   1 0.0000 14.590443 19.759546 17.682049
968   1 0.0000 14.590443 19.759546 28.910864
969   1 0.0000 14.590443 19.759546 40.139679
970   1 0.0000 14.590443 19.759546 51.368494
971   1 0.0000 14.590443 25.854362  6.453234
972   1 0.0000 14.590443 25.854362 17.682049
973   1 0.0000 14.590443 25.854362 28.910864
974   1 0.0000 14.590443 25.854362 40.139679
975   1 0.0000 14.590443 25.854362 51.368494
976   1 0.0000 19.453924  1.475098  6.453234
977   1 0.0000 19.453924  1.475098 17.682049
978   1 0.0000 19.453924  1.475098 28.910864
979   1 0.0000 19.453924  1.475098 40.139679
980   1 0.0000 19.453924  1.475098 51.368494
981   1 0.0000 19.453924  7.569914  6.453234
982   1 0.0000 19.453924  7.569914 17.682049
983   1 0.0000 19.453924  7.569914 28.910864
984   1 0.0000 19.453924  7.569914 40.139679
985   1 0.0000 19.453924  7.569914 51.368494
986   1 0.0000 19.453924 13.664730  6.453234
987   1 0.0000 19.453924 13.664730 17.682049
988   1 0.0000 19.453924 13.664730 28.910864
989   1 0.0000 19.453924 13.664730 40.139679
990   1 0.0000 19.453924 13.664730 51.368494
991   1 0.0000 19.453924 19.759546  6.453234
992   1 0.0000 19.453924 19.759546 17.682049
993   1 0.0000 19.453924 19.759546 28.910864
994   1 0.0000 19.453924 19.759546 40.139679
995   1 0.0000 19.453924 19.759546 51.368494
996   1 0.0000 19.453924 25.854362  6.453234
997   1 0.0000 19.453924 25.854362 17.682049
998   1 0.0000 19.453924 25.854362 28.910864
999   1 0.0000 19.453924 25.854362 40.139679
1000  1 0.0000 19.453924 25.854362 51.368494
1001  1 0.0000  0.000000  3.047408  9.280200
1002  1 0.0000  0.000000  3.047408 20.509015
1003  1 0.0000  0.000000  3.047408 31.737830
1004  1 0.0000  0.000000  3.047408 42.966645
1005  1 0.0000  0.000000  3.047408 54.195460
1006  1 0.0000  0.000000  9.142224  9.280200
1007  1 0.0000  0.000000  9.142224 20.509015
1008  1 0.0000  0.000000  9.142224 31.737830
1009  1 0.0000  0.000000  9.142224 42.966645
1010  1 0.0000  0.000000  9.142224 54.195460
1011  1 0.0000  0.000000 15.237040  9.280200
1012  1 0.0000  0.000000 15.237040 20.509015
1013  1 0.0000  0.000000 15.237040 31.737830
1014  1 0.0000  0.000000 15.237040 42.966645
1015  1 0.0000  0.000000 15.237040 54.195460
1016  1 0.0000  0.000000 21.331856  9.280200
1017  1 0.0000  0.000000 21.331856 20.509015
1018  1 0.0000  0.000000 21.331856 31.737830
1019  1 0.0000  0.000000 21.331856 42.966645
1020  1 0.0000  0.000000 21.331856 54.195460
1021  1 0.0000  0.000000 27.426672  9.280200
1022  1 0.0000  0.000000 27.426672 20.509015
1023  1 0.0000  0.000000 27.426672 31.737830
1024  1 0.0000  0.000000 27.426672 42.966645
1025  1 0.0000  0.000000 27.426672 54.195460
1026  1 0.0000  4.863481  3.047408  9.280200
1027  1 0.0000  4.863481  3.047408 20.509015
1028  1 0.0000  4.863481  3.047408 31.737830
1029  1 0.0000  4.863481  3.047408 42.966645
1030  1 0.0000  4.863481  3.047408 54.195460
1031  1 0.0000  4.863481  9.142224  9.280200
1032  1 0.0000  4.863481  9.142224 20.509015
1033  1 0.0000  4.863481  9.142224 31.737830
1034  1 0.0000  4.863481  9.142224 42.966645
1035  1 0.0000  4.863481  9.142224 54.195460
1036  1 0.0000  4.863481 15.237040  9.280200
1037  1 0.0000  4.863481 15.237040 20.509015
1038  1 0.0000  4.863481 15.237040 31.737830
1039  1 0.0000  4.863481 15.237040 42.966645
1040  1 0.0000  4.863481 15.237040 54.195460
1041  1 0.0000  4.863481 21.331856  9.280200
1042  1 0.0000  4.863481 21.331856 20.509015
1043  1 0.0000  4.863481 21.331856 31.737830
1044  1 0.0000  4.863481 21.331856 42.966645
1045  1 0.0000  4.863481 21.331856 54.195460
1046  1 0.0000  4.863481 27.426672  9.280200
1047  1 0.0000  4.863481 27.426672 20.509015
1048  1 0.0000  4.863481 27.426672 31.737830
1049  1 0.0000  4.863481 27.426672 42.966645
1050  1 0.0000  4.863481 27.426672 54.195460
1051  1 0.0000  9.726962  3.047408  9.280200
1052  1 0.0000  9.726962  3.047408 20.509015
1053  1 0.0000  9.726962  3.047408 31.737830
1054  1 0.0000  9.726962  3.047408 42.966645
1055  1 0.0000  9.726962  3.047408 54.195460
1056  1 0.0000  9.726962  9.142224  9.280200
1057  1 0.0000  9.726962  9.142224 20.509015
1058  1 0.0000  9.726962  9.142224 31.737830
1059  1 0.0000  9.726962  9.142224 42.966645
1060  1 0.0000  9.726962  9.142224 54.195460
1061  1 0.0000  9.726962 15.237040  9.280200
1062  1 0.0000  9.726962 15.237040 20.509015
1063  1 0.0000  9.726962 15.237040 31.737830
1064  1 0.0000  9.726962 15.237040 42.966645
1065  1 0.0000  9.726962 15.237040 54.195460
1066  1 0.0000  9.726962 21.331856  9.280200
1067  1 0.0000  9.726962 21.331856 20.509015
1068  1 0.0000  9.726962 21.331856 31.737830
1069  1 0.0000  9.726962 21.331856 42.966645
1070  1 0.0000  9.726962 21.331856 54.195460
1071  1 0.0000  9.726962 27.426672  9.280200
1072  1 0.0000  9.726962 27.426672 20.509015
1073  1 0.0000  9.726962 27.426672 31.737830
1074  1 0.0000  9.726962 27.426672 42.966645
1075  1 0.0000  9.726962 27.426672 54.195460
1076  1 0.0000 14.590443  3.047408  9.280200
1077  1 0.0000 14.590443  3.047408 20.509015
1078  1 0.0000 14.590443  3.047408 31.737830
1079  1 0.0000 14.590443  3.047408 42.966645
1080  1 0.0000 14.590443  3.047408 54.195460
1081  1 0.0000 14.590443  9.142224  9.280200
1082  1 0.0000 14.590443  9.142224 20.509015
1083  1 0.0000 14.590443  9.142224 31.737830
1084  1 0.0000 14.590443  9.142224 42.966645
1085  1 0.0000 14.590443  9.142224 54.195460
1086  1 0.0000 14.590443 15.237040  9.280200
1087  1 0.0000 14.590443 15.237040 20.509015
1088  1 0.0000 14.590443 15.237040 31.737830
1089  1 0.0000 14.590443 15.237040 42.966645
1090  1 0.0000 14.590443 15.237040 54.195460
1091  1 0.0000 14.590443 21.331856  9.280200
1092  1 0.0000 14.590443 21.331856 20.509015
1093  1 0.0000 14.590443 21.331856 31.737830
1094  1 0.0000 14.590443 21.331856 42.966645
1095  1 0.0000 14.590443 21.331856 54.195460
1096  1 0.0000 14.590443 27.426672  9.280200
1097  1 0.0000 14.590443 27.426672 20.509015
1098  1 0.0000 14.590443 27.426672 31.737830
1099  1 0.0000 14.590443 27.426672 42.966645
1100  1 0.0000 14.590443 27.426672 54.195460
1101  1 0.0000 19.453924  3.047408  9.280200
1102  1 0.0000 19.453924  3.047408 20.509015
1103  1 0.0000 19.453924  3.047408 31.737830
1104  1 0.0000 19.453924  3.047408 42.966645
1105  1 0.0000 19.453924  3.047408 54.195460
1106  1 0.0000 19.453924  9.142224  9.280200
1107  1 0.0000 19.453924  9.142224 20.509015
1108  1 0.0000 19.453924  9.142224 31.737830
1109  1 0.0000 19.453924  9.142224 42.966645
1110  1 0.0000 19.453924  9.142224 54.195460
1111  1 0.0000 19.453924 15.237040  9.280200
1112  1 0.0000 19.453924 15.237040 20.509015
1113  1 0.0000 19.453924 15.237040 31.737830
1114  1 0.0000 19.453924 15.237040 42.966645
1115  1 0.0000 19.453924 15.237040 54.195460
1116  1 0.0000 19.453924 21.331856  9.280200
1117  1 0.0000 19.453924 21.331856 20.509015
1118  1 0.0000 19.453924 21.331856 31.737830
1119  1 0.0000 19.453924 21.331856 42.966645
1120  1 0.0000 19.453924 21.331856 54.195460
1121  1 0.0000 19.453924 27.426672  9.280200
1122  1 0.0000 19.453924 27.426672 20.509015
1123  1 0.0000 19.453924 27.426672 31.737830
1124  1 0.0000 19.453924 27.426672 42.966645
1125  1 0.0000 19.453924 27.426672 54.195460
1126  1 0.0000  2.431741  1.483216 10.403564
1127  1 0.0000  2.431741  1.483216 21.632379
1128  1 0.0000  2.431741  1.483216 32.861194
1129  1 0.0000  2.431741  1.483216 44.090009
1130  1 0.0000  2.431741  1.483216 55.318824
1131  1 0.0000  2.431741  7.578032 10.403564
1132  1 0.0000  2.431741  7.578032 21.632379
1133  1 0.0000  2.431741  7.578032 32.861194
1134  1 0.0000  2.431741  7.578032 44.090009
1135  1 0.0000  2.431741  7.578032 55.318824
1136  1 0.0000  2.431741 13.672848 10.403564
1137  1 0.0000  2.431741 13.672848 21.632379
1138  1 0.0000  2.431741 13.672848 32.861194
1139  1 0.0000  2.431741 13.672848 44.090009
1140  1 0.0000  2.431741 13.672848 55.318824
1141  1 0.0000  2.431741 19.767664 10.403564
1142  1 0.0000  2.431741 19.767664 21.632379
1143  1 0.0000  2.431741 19.767664 32.861194
1144  1 0.0000  2.431741 19.767664 44.090009
1145  1 0.0000  2.431741 19.767664 55.318824
1146  1 0.0000  2.431741 25.862480 10.403564
1147  1 0.0000  2.431741 25.862480 21.632379
1148  1 0.0000  2.431741 25.862480 32.861194
1149  1 0.0000  2.431741 25.862480 44.090009
1150  1 0.0000  2.431741 25.862480 55.318824
1151  1 0.0000  7.295222  1.483216 10.403564
1152  1 0.0000  7.295222  1.483216 21.632379
1153  1 0.0000  7.295222  1.483216 32.861194
1154  1 0.0000  7.295222  1.483216 44.090009
1155  1 0.0000  7.295222  1.483216 55.318824
1156  1 0.0000  7.295222  7.578032 10.403564
1157  1 0.0000  7.295222  7.578032 21.632379
1158  1 0.0000  7.295222  7.578032 32.861194
1159  1 0.0000  7.295222  7.578032 44.090009
1160  1 0.0000  7.295222  7.578032 55.318824
1161  1 0.0000  7.295222 13.672848 10.403564
1162  1 0.0000  7.295222 13.672848 21.632379
1163  1 0.0000  7.295222 13.672848 32.861194
1164  1 0.0000  7.295222 13.672848 44.090009
1165  1 0.0000  7.295222 13.672848 55.318824
1166  1 0.0000  7.295222 19.767664 10.403564
1167  1 0.0000  7.295222 19.767664 21.632379
1168  1 0.0000  7.295222 19.767664 32.861194
1169  1 0.0000  7.295222 19.767664 44.090009
1170  1 0.0000  7.295222 19.767664 55.318824
1171  1 0.0000  7.295222 25.862480 10.403564
1172  1 0.0000  7.295222 25.862480 21.632379
1173  1 0.0000  7.295222 25.862480 32.861194
1174  1 0.0000  7.295222 25.862480 44.090009
1175  1 0.0000  7.295222 25.862480 55.318824
1176  1 0.0000 12.158702  1.483216 10.403564
1177  1 0.0000 12.158702  1.483216 21.632379
1178  1 0.0000 12.158702  1.483216 32.861194
1179  1 0.0000 12.158703  1.483216 44.090009
1180  1 0.0000 12.158703  1.483216 55.318824
1181  1 0.0000 12.158702  7.578032 10.403564
1182  1 0.0000 12.158703  7.578032 21.632379
1183  1 0.0000 12.158703  7.578032 32.861194
1184  1 0.0000 12.158703  7.578032 44.090009
1185  1 0.0000 12.158703  7.578032 55.318824
1186  1 0.0000 12.158702 13.672848 10.403564
1187  1 0.0000 12.158702 13.672848 21.632379
1188  1 0.0000 12.158702 13.672848 32.861194
1189  1 0.0000 12.158703 13.672848 44.090009
1190  1 0.0000 12.158703 13.672848 55.318824
1191  1 0.0000 12.158703 19.767664 10.403564
1192  1 0.0000 12.158703 19.767664 21.632379
1193  1 0.0000 12.158703 19.767664 32.861194
1194  1 0.0000 12.158703 19.767664 44.090009
1195  1 0.0000 12.158703 19.767664 55.318824
1196  1 0.0000 12.158703 25.862480 10.403564
1197  1 0.0000 12.158703 25.862480 21.632379
1198  1 0.0000 12.158703 25.862480 32.861194
1199  1 0.0000 12.158703 25.862480 44.090009
1200  1 0.0000 12.158703 25.862480 55.318824
1201  1 0.0000 17.022184  1.483216 10.403564
1202  1 0.0000 17.022184  1.483216 21.632379
1203  1 0.0000 17.022184  1.483216 32.861194
1204  1 0.0000 17.022184  1.483216 44.090009
1205  1 0.0000 17.022184  1.483216 55.318824
1206  1 0.0000 17.022184  7.578032 10.403564
1207  1 0.0000 17.022184  7.578032 21.632379
1208  1 0.0000 17.022184  7.578032 32.861194
1209  1 0.0000 17.022184  7.578032 44.090009
1210  1 0.0000 17.022184  7.578032 55.318824
1211  1 0.0000 17.022184 13.672848 10.403564
1212  1 0.0000 17.022184 13.672848 21.632379
1213  1 0.0000 17.022184 13.672848 32.861194
1214  1 0.0000 17.022184 13.672848 44.090009
1215  1 0.0000 17.022184 13.672848 55.318824
1216  1 0.0000 17.022184 19.767664 10.403564
1217  1 0.0000 17.022184 19.767664 21.632379
1218  1 0.0000 17.022184 19.767664 32.861194
1219  1 0.0000 17.022184 19.767664 44.090009
1220  1 0.0000 17.022184 19.767664 55.318824
1221  1 0.0000 17.022184 25.862480 10.403564
1222  1 0.0000 17.022184 25.862480 21.632379
1223  1 0.0000 17.022184 25.862480 32.861194
1224  1 0.0000 17.022184 25.862480 44.090009
1225  1 0.0000 17.022184 25.862480 55.318824
1226  1 0.0000 21.885664  1.483216 10.403564
1227  1 0.0000 21.885664  1.483216 21.632379
1228  1 0.0000 21.885664  1.483216 32.861194
1229  1 0.0000 21.885664  1.483216 44.090009
1230  1 0.0000 21.885664  1.483216 55.318824
1231  1 0.0000 21.885664  7.578032 10.403564
1232  1 0.0000 21.885664  7.578032 21.632379
1233  1 0.0000 21.885664  7.578032 32.861194
1234  1 0.0000 21.885664  7.578032 44.090009
1235  1 0.0000 21.885664  7.578032 55.318824
1236  1 0.0000 21.885665 13.672848 10.403564
1237  1 0.0000 21.885665 13.672848 21.632379
1238  1 0.0000 21.885665 13.672848 32.861194
1239  1 0.0000 21.885665 13.672848 44.090009
1240  1 0.0000 21.885665 13.672848 55.318824
1241  1 0.0000 21.885665 19.767664 10.403564
1242  1 0.0000 21.885665 19.767664 21.632379
1243  1 0.0000 21.885665 19.767664 32.861194
1244  1 0.0000 21.885665 19.767664 44.090009
1245  1 0.0000 21.885665 19.767664 55.318824
1246  1 0.0000 21.885664 25.862480 10.403564
1247  1 0.0000 21.885664 25.862480 21.632379
1248  1 0.0000 21.885665 25.862480 32.861194
1249  1 0.0000 21.885665 25.862480 44.090009
1250  1 0.0000 21.885665 25.862480 55.318824
1251  1 0.0000  2.431741  4.611600 10.403564
1252  1 0.0000  2.431741  4.611600 21.632379
1253  1 0.0000  2.431741  4.611600 32.861194
1254  1 0.0000  2.431741  4.611600 44.090009
1255  1 0.0000  2.431741  4.611600 55.318824
1256  1 0.0000  2.431741 10.706416 10.403564
1257  1 0.0000  2.431741 10.706416 21.632379
1258  1 0.0000  2.431741 10.706416 32.861194
1259  1 0.0000  2.431741 10.706416 44.090009
1260  1 0.0000  2.431741 10.706416 55.318824
1261  1 0.0000  2.431741 16.801232 10.403564
1262  1 0.0000  2.431741 16.801232 21.632379
1263  1 0.0000  2.431741 16.801232 32.861194
1264  1 0.0000  2.431741 16.801232 44.090009
1265  1 0.0000  2.431741 16.801232 55.318824
1266  1 0.0000  2.431741 22.896048 10.403564
1267  1 0.0000  2.431741 22.896048 21.632379
1268  1 0.0000  2.431741 22.896048 32.861194
1269  1 0.0000  2.431741 22.896048 44.090009
1270  1 0.0000  2.431741 22.896048 55.318824
1271  1 0.0000  2.431741 28.990864 10.403564
1272  1 0.0000  2.431741 28.990864 21.632379
1273  1 0.0000  2.431741 28.990864 32.861194
1274  1 0.0000  2.431741 28.990864 44.090009
1275  1 0.0000  2.431741 28.990864 55.318824
1276  1 0.0000  7.295222  4.611600 10.403564
1277  1 0.0000  7.295222  4.611600 21.632379
1278  1 0.0000  7.295222  4.611600 32.861194
1279  1 0.0000  7.295222  4.611600 44.090009
1280  1 0.0000  7.295222  4.611600 55.318824
1281  1 0.0000  7.295222 10.706416 10.403564
1282  1 0.0000  7.295222 10.706416 21.632379
1283  1 0.0000  7.295222 10.706416 32.861194
1284  1 0.0000  7.295222 10.706416 44.090009
1285  1 0.0000  7.295222 10.706416 55.318824
1286  1 0.0000  7.295222 16.801232 10.403564
1287  1 0.0000  7.295222 16.801232 21.632379
1288  1 0.0000  7.295222 16.801232 32.861194
1289  1 0.0000  7.295222 16.801232 44.090009
1290  1 0.0000  7.295222 16.801232 55.318824
1291  1 0.0000  7.295222 22.896048 10.403564
1292  1 0.0000  7.295222 22.896048 21.632379
1293  1 0.0000  7.295222 22.896048 32.861194
1294  1 0.0000  7.295222 22.896048 44.090009
1295  1 0.0000  7.295222 22.896048 55.318824
1296  1 0.0000  7.295222 28.990864 10.403564
1297  1 0.0000  7.295222 28.990864 21.632379
1298  1 0.0000  7.295222 28.990864 32.861194
1299  1 0.0000  7.295222 28.990864 44.090009
1300  1 0.0000  7.295222 28.990864 55.318824
1301  1 0.0000 12.158702  4.611600 10.403564
1302  1 0.0000 12.158702  4.611600 21.632379
1303  1 0.0000 12.158702  4.611600 32.861194
1304  1 0.0000 12.158702  4.611600 44.090009
1305  1 0.0000 12.158702  4.611600 55.318824
1306  1 0.0000 12.158703 10.706416 10.403564
1307  1 0.0000 12.158703 10.706416 21.632379
1308  1 0.0000 12.158703 10.706416 32.861194
1309  1 0.0000 12.158703 10.706416 44.090009
1310  1 0.0000 12.158703 10.706416 55.318824
1311  1 0.0000 12.158703 16.801232 10.403564
1312  1 0.0000 12.158703 16.801232 21.632379
1313  1 0.0000 12.158703 16.801232 32.861194
1314  1 0.0000 12.158703 16.801232 44.090009
1315  1 0.0000 12.158703 16.801232 55.318824
1316  1 0.0000 12.158703 22.896048 10.403564
1317  1 0.0000 12.158703 22.896048 21.632379
1318  1 0.0000 12.158703 22.896048 32.861194
1319  1 0.0000 12.158703 22.896048 44.090009
1320  1 0.0000 12.158703 22.896048 55.318824
1321  1 0.0000 12.158703 28.990864 10.403564
1322  1 0.0000 12.158703 28.990864 21.632379
1323  1 0.0000 12.158703 28.990864 32.861194
1324  1 0.0000 12.158703 28.990864 44.090009
1325  1 0.0000 12.158703 28.990864 55.318824
1326  1 0.0000 17.022184  4.611600 10.403564
1327  1 0.0000 17.022184  4.611600 21.632379
1328  1 0.0000 17.022184  4.611600 32.861194
1329  1 0.0000 17.022184  4.611600 44.090009
1330  1 0.0000 17.022184  4.611600 55.318824
1331  1 0.0000 17.022184 10.706416 10.403564
1332  1 0.0000 17.022184 10.706416 21.632379
1333  1 0.0000 17.022184 10.706416 32.861194
1334  1 0.0000 17.022184 10.706416 44.090009
1335  1 0.0000 17.022184 10.706416 55.318824
1336  1 0.0000 17.022184 16.801232 10.403564
1337  1 0.0000 17.022184 16.801232 21.632379
1338  1 0.0000 17.022184 16.801232 32.861194
1339  1 0.0000 17.022184 16.801232 44.090009
1340  1 0.0000 17.022184 16.801232 55.318824
1341  1 0.0000 17.022184 22.896048 10.403564
1342  1 0.0000 17.022184 22.896048 21.632379
1343  1 0.0000 17.022184 22.896048 32.861194
1344  1 0.0000 17.022184 22.896048 44.090009
1345  1 0.0000 17.022184 22.896048 55.318824
1346  1 0.0000 17.022184 28.990864 10.403564
1347  1 0.0000 17.022184 28.990864 21.632379
1348  1 0.0000 17.022184 28.990864 32.861194
1349  1 0.0000 17.022184 28.990864 44.090009
1350  1 0.0000 17.022184 28.990864 55.318824
1351  1 0.0000 21.885664  4.611600 10.403564
1352  1 0.0000 21.885664  4.611600 21.632379
1353  1 0.0000 21.885664  4.611600 32.861194
1354  1 0.0000 21.885664  4.611600 44.090009
1355  1 0.0000 21.885664  4.611600 55.318824
1356  1 0.0000 21.885664 10.706416 10.403564
1357  1 0.0000 21.885664 10.706416 21.632379
1358  1 0.0000 21.885664 10.706416 32.861194
1359  1 0.0000 21.885664 10.706416 44.090009
1360  1 0.0000 21.885664 10.706416 55.318824
1361  1 0.0000 21.885665 16.801232 10.403564
1362  1 0.0000 21.885665 16.801232 21.632379
1363  1 0.0000 21.885665 16.801232 32.861194
1364  1 0.0000 21.885665 16.801232 44.090009
1365  1 0.0000 21.885665 16.801232 55.318824
1366  1 0.0000 21.885665 22.896048 10.403564
1367  1 0.0000 21.885665 22.896048 21.632379
1368  1 0.0000 21.885665 22.896048 32.861194
1369  1 0.0000 21.885665 22.896048 44.090009
1370  1 0.0000 21.885665 22.896048 55.318824
1371  1 0.0000 21.885664 28.990864 10.403564
1372  1 0.0000 21.885664 28.990864 21.632379
1373  1 0.0000 21.885665 28.990864 32.861194
1374  1 0.0000 21.885665 28.990864 44.090009
1375  1 0.0000 21.885665 28.990864 55.318824
1376  1 0.0000  2.431741  3.047408  7.554062
1377  1 0.0000  2.431741  3.047408 18.782877
1378  1 0.0000  2.431741  3.047408 30.011692
1379  1 0.0000  2.431741  3.047408 41.240507
1380  1 0.0000  2.431741  3.047408 52.469322
1381  1 0.0000  2.431741  9.142224  7.554062
1382  1 0.0000  2.431741  9.142224 18.782877
1383  1 0.0000  2.431741  9.142224 30.011692
1384  1 0.0000  2.431741  9.142224 41.240507
1385  1 0.0000  2.431741  9.142224 52.469322
1386  1 0.0000  2.431741 15.237040  7.554062
1387  1 0.0000  2.431741 15.237040 18.782877
1388  1 0.0000  2.431741 15.237040 30.011692
1389  1 0.0000  2.431741 15.237040 41.240507
1390  1 0.0000  2.431741 15.237040 52.469322
1391  1 0.0000  2.431741 21.331856  7.554062
1392  1 0.0000  2.431741 21.331856 18.782877
1393  1 0.0000  2.431741 21.331856 30.011692
1394  1 0.0000  2.431741 21.331856 41.240507
1395  1 0.0000  2.431741 21.331856 52.469322
1396  1 0.0000  2.431741 27.426672  7.554062
1397  1 0.0000  2.431741 27.426672 18.782877
1398  1 0.0000  2.431741 27.426672 30.011692
1399  1 0.0000  2.431741 27.426672 41.240507
1400  1 0.0000  2.431741 27.426672 52.469322
1401  1 0.0000  7.295222  3.047408  7.554062
1402  1 0.0000  7.295222  3.047408 18.782877
1403  1 0.0000  7.295222  3.047408 30.011692
1404  1 0.0000  7.295222  3.047408 41.240507
1405  1 0.0000  7.295222  3.047408 52.469322
1406  1 0.0000  7.295222  9.142224  7.554062
1407  1 0.0000  7.295222  9.142224 18.782877
1408  1 0.0000  7.295222  9.142224 30.011692
1409  1 0.0000  7.295222  9.142224 41.240507
1410  1 0.0000  7.295222  9.142224 52.469322
1411  1 0.0000  7.295222 15.237040  7.554062
1412  1 0.0000  7.295222 15.237040 18.782877
1413  1 0.0000  7.295222 15.237040 30.011692
1414  1 0.0000  7.295222 15.237040 41.240507
1415  1 0.0000  7.295222 15.237040 52.469322
1416  1 0.0000  7.295222 21.331856  7.554062
1417  1 0.0000  7.295222 21.331856 18.782877
1418  1 0.0000  7.295222 21.331856 30.011692
1419  1 0.0000  7.295222 21.331856 41.240507
1420  1 0.0000  7.295222 21.331856 52.469322
1421  1 0.0000  7.295222 27.426672  7.554062
1422  1 0.0000  7.295222 27.426672 18.782877
1423  1 0.0000  7.295222 27.426672 30.011692
1424  1 0.0000  7.295222 27.426672 41.240507
1425  1 0.0000  7.295222 27.426672 52.469322
1426  1 0.0000 12.158702  3.047408  7.554062
1427  1 0.0000 12.158702  3.047408 18.782877
1428  1 0.0000 12.158702  3.047408 30.011692
1429  1 0.0000 12.158702  3.047408 41.240507
1430  1 0.0000 12.158703  3.047408 52.469322
1431  1 0.0000 12.158702  9.142224  7.554062
1432  1 0.0000 12.158703  9.142224 18.782877
1433  1 0.0000 12.158703  9.142224 30.011692
1434  1 0.0000 12.158703  9.142224 41.240507
1435  1 0.0000 12.158703  9.142224 52.469322
1436  1 0.0000 12.158702 15.237040  7.554062
1437  1 0.0000 12.158702 15.237040 18.782877
1438  1 0.0000 12.158702 15.237040 30.011692
1439  1 0.0000 12.158702 15.237040 41.240507
1440  1 0.0000 12.158703 15.237040 52.469322
1441  1 0.0000 12.158703 21.331856  7.554062
1442  1 0.0000 12.158703 21.331856 18.782877
1443  1 0.0000 12.158703 21.331856 30.011692
1444  1 0.0000 12.158703 21.331856 41.240507
1445  1 0.0000 12.158703 21.331856 52.469322
1446  1 0.0000 12.158703 27.426672  7.554062
1447  1 0.0000 12.158703 27.426672 18.782877
1448  1 0.0000 12.158703 27.426672 30.011692
1449  1 0.0000 12.158703 27.426672 41.240507
1450  1 0.0000 12.158703 27.426672 52.469322
1451  1 0.0000 17.022184  3.047408  7.554062
1452  1 0.0000 17.022184  3.047408 18.782877
1453  1 0.0000 17.022184  3.047408 30.011692
1454  1 0.0000 17.022184  3.047408 41.240507
1455  1 0.0000 17.022184  3.047408 52.469322
1456  1 0.0000 17.022184  9.142224  7.554062
1457  1 0.0000 17.022184  9.142224 18.782877
1458  1 0.0000 17.022184  9.142224 30.011692
1459  1 0.0000 17.022184  9.142224 41.240507
1460  1 0.0000 17.022184  9.142224 52.469322
1461  1 0.0000 17.022184 15.237040  7.554062
1462  1 0.0000 17.022184 15.237040 18.782877
1463  1 0.0000 17.022184 15.237040 30.011692
1464  1 0.0000 17.022184 15.237040 41.240507
1465  1 0.0000 17.022184 15.237040 52.469322
1466  1 0.0000 17.022184 21.331856  7.554062
1467  1 0.0000 17.022184 21.331856 18.782877
1468  1 0.0000 17.022184 21.331856 30.011692
1469  1 0.0000 17.022184 21.331856 41.240507
1470  1 0.0000 17.022184 21.331856 52.469322
1471  1 0.0000 17.022184 27.426672  7.554062
1472  1 0.0000 17.022184 27.426672 18.782877
1473  1 0.0000 17.022184 27.426672 30.011692
1474  1 0.0000 17.022184 27.426672 41.240507
1475  1 0.0000 17.022184 27.426672 52.469322
1476  1 0.0000 21.885664  3.047408  7.554062
1477  1 0.0000 21.885664  3.047408 18.782877
1478  1 0.0000 21.885664  3.047408 30.011692
1479  1 0.0000 21.885664  3.047408 41.240507
1480  1 0.0000 21.885664  3.047408 52.469322
1481  1 0.0000 21.885664  9.142224  7.554062
1482  1 0.0000 21.885664  9.142224 18.782877
1483  1 0.0000 21.885664  9.142224 30.011692
1484  1 0.0000 21.885664  9.142224 41.240507
1485  1 0.0000 21.885664  9.142224 52.469322
1486  1 0.0000 21.885665 15.237040  7.554062
1487  1 0.0000 21.885665 15.237040 18.782877
1488  1 0.0000 21.885665 15.237040 30.011692
1489  1 0.0000 21.885665 15.237040 41.240507
1490  1 0.0000 21.885665 15.237040 52.469322
1491  1 0.0000 21.885665 21.331856  7.554062
1492  1 0.0000 21.885665 21.331856 18.782877
1493  1 0.0000 21.885665 21.331856 30.011692
1494  1 0.0000 21.885665 21.331856 41.240507
1495  1 0.0000 21.885665 21.331856 52.469322
1496  1 0.0000 21.885664 27.426672  7.554062
1497  1 0.0000 21.885664 27.426672 18.782877
1498  1 0.0000 21.885665 27.426672 30.011692
1499  1 0.0000 21.885665 27.426672 41.240507
1500  1 0.0000 21.885665 27.426672 52.469322
1501  2 0.0000  0.000000  3.047408  3.359145
1502  2 0.0000  0.000000  3.047408 14.587960
1503  2 0.0000  0.000000  3.047408 25.816775
1504  2 0.0000  0.000000  3.047408 37.045590
1505  2 0.0000  0.000000  3.047408 48.274405
1506  2 0.0000  0.000000  9.142224  3.359145
1507  2 0.0000  0.000000  9.142224 14.587960
1508  2 0.0000  0.000000  9.142224 25.816775
1509  2 0.0000  0.000000  9.142224 37.045590
1510  2 0.0000  0.000000  9.142224 48.274405
1511  2 0.0000  0.000000 15.237040  3.359145
1512  2 0.0000  0.000000 15.237040 14.587960
1513  2 0.0000  0.000000 15.237040 25.816775
1514  2 0.0000  0.000000 15.237040 37.045590
1515  2 0.0000  0.000000 15.237040 48.274405
1516  2 0.0000  0.000000 21.331856  3.359145
1517  2 0.0000  0.000000 21.331856 14.587960
1518  2 0.0000  0.000000 21.331856 25.816775
1519  2 0.0000  0.000000 21.331856 37.045590
1520  2 0.0000  0.000000 21.331856 48.274405
1521  2 0.0000  0.000000 27.426672  3.359145
1522  2 0.0000  0.000000 27.426672 14.587960
1523  2 0.0000  0.000000 27.426672 25.816775
1524  2 0.0000  0.000000 27.426672 37.045590
1525  2 0.0000  0.000000 27.426672 48.274405
1526  2 0.0000  4.863481  3.047408  3.359145
1527  2 0.0000  4.863481  3.047408 14.587960
1528  2 0.0000  4.863481  3.047408 25.816775
1529  2 0.0000  4.863481  3.047408 37.045590
1530  2 0.0000  4.863481  3.047408 48.274405
1531  2 0.0000  4.863481  9.142224  3.359145
1532  2 0.0000  4.863481  9.142224 14.587960
1533  2 0.0000  4.863481  9.142224 25.816775
1534  2 0.0000  4.863481  9.142224 37.045590
1535  2 0.0000  4.863481  9.142224 48.274405
1536  2 0.0000  4.863481 15.237040  3.359145
1537  2 0.0000  4.863481 15.237040 14.587960
1538  2 0.0000  4.863481 15.237040 25.816775
1539  2 0.0000  4.863481 15.237040 37.045590
1540  2 0.0000  4.863481 15.237040 48.274405
1541  2 0.0000  4.863481 21.331856  3.359145
1542  2 0.0000  4.863481 21.331856 14.587960
1543  2 0.0000  4.863481 21.331856 25.816775
1544  2 0.0000  4.863481 21.331856 37.045590
1545  2 0.0000  4.863481 21.331856 48.274405
1546  2 0.0000  4.863481 27.426672  3.359145
1547  2 0.0000  4.863481 27.426672 14.587960
1548  2 0.0000  4.863481 27.426672 25.816775
1549  2 0.0000  4.863481 27.426672 37.045590
1550  2 0.0000  4.863481 27.426672 48.274405
1551  2 0.0000  9.726962  3.047408  3.359145
1552  2 0.0000  9.726962  3.047408 14.587960
1553  2 0.0000  9.726962  3.047408 25.816775
1554  2 0.0000  9.726962  3.047408 37.045590
1555  2 0.0000  9.726962  3.047408 48.274405
1556  2 0.0000  9.726962  9.142224  3.359145
1557  2 0.0000  9.726962  9.142224 14.587960
1558  2 0.0000  9.726962  9.142224 25.816775
1559  2 0.0000  9.726962  9.142224 37.045590
1560  2 0.0000  9.726962  9.142224 48.274405
1561  2 0.0000  9.726962 15.237040  3.359145
1562  2 0.0000  9.726962 15.237040 14.587960
1563  2 0.0000  9.726962 15.237040 25.816775
1564  2 0.0000  9.726962 15.237040 37.045590
1565  2 0.0000  9.726962 15.237040 48.274405
1566  2 0.0000  9.726962 21.331856  3.359145
1567  2 0.0000  9.726962 21.331856 14.587960
1568  2 0.0000  9.726962 21.331856 25.816775
1569  2 0.0000  9.726962 21.331856 37.045590
1570  2 0.0000  9.726962 21.331856 48.274405
1571  2 0.0000  9.726962 27.426672  3.359145
1572  2 0.0000  9.726962 27.426672 14.587960
1573  2 0.0000  9.726962 27.426672 25.816775
1574  2 0.0000  9.726962 27.426672 37.045590
1575  2 0.0000  9.726962 27.426672 48.274405
1576  2 0.0000 14.590443  3.047408  3.359145
1577  2 0.0000 14.590443  3.047408 14.587960
1578  2 0.0000 14.590443  3.047408 25.816775
1579  2 0.0000 14.590443  3.047408 37.045590
1580  2 0.0000 14.590443  3.047408 48.274405
1581  2 0.0000 14.590443  9.142224  3.359145
1582  2 0.0000 14.590443  9.142224 14.587960
1583  2 0.0000 14.590443  9.142224 25.816775
1584  2 0.0000 14.590443  9.142224 37.045590
1585  2 0.0000 14.590443  9.142224 48.274405
1586  2 0.0000 14.590443 15.237040  3.359145
1587  2 0.0000 14.590443 15.237040 14.587960
1588  2 0.0000 14.590443 15.237040 25.816775
1589  2 0.0000 14.590443 15.237040 37.045590
1590  2 0.0000 14.590443 15.237040 48.274405
1591  2 0.0000 14.590443 21.331856  3.359145
1592  2 0.0000 14.590443 21.331856 14.587960
1593  2 0.0000 14.590443 21.331856 25.816775
1594  2 0.0000 14.590443 21.331856 37.045590
1595  2 0.0000 14.590443 21.331856 48.274405
1596  2 0.0000 14.590443 27.426672  3.359145
1597  2 0.0000 14.590443 27.426672 14.587960
1598  2 0.0000 14.590443 27.426672 25.816775
1599  2 0.0000 14.590443 27.426672 37.045590
1600  2 0.0000 14.590443 27.426672 48.274405
1601  2 0.0000 19.453924  3.047408  3.359145
1602  2 0.0000 19.453924  3.047408 14.587960
1603  2 0.0000 19.453924  3.047408 25.816775
1604  2 0.0000 19.453924  3.047408 37.045590
1605  2 0.0000 19.453924  3.047408 48.274405
1606  2 0.0000 19.453924  9.142224  3.359145
1607  2 0.0000 19.453924  9.142224 14.587960
1608  2 0.0000 19.453924  9.142224 25.816775
1609  2 0.0000 19.453924  9.142224 37.045590
1610  2 0.0000 19.453924  9.142224 48.274405
1611  2 0.0000 19.453924 15.237040  3.359145
1612  2 0.0000 19.453924 15.237040 14.587960
1613  2 0.0000 19.453924 15.237040 25.816775
1614  2 0.0000 19.453924 15.237040 37.045590
1615  2 0.0000 19.453924 15.237040 48.274405
1616  2 0.0000 19.453924 21.331856  3.359145
1617  2 0.0000 19.453924 21.331856 14.587960
1618  2 0.0000 19.453924 21.331856 25.816775
1619  2 0.0000 19.453924 21.331856 37.045590
1620  2 0.0000 19.453924 21.331856 48.274405
1621  2 0.0000 19.453924 27.426672  3.359145
1622  2 0.0000 19.453924 27.426672 14.587960
1623  2 0.0000 19.453924 27.426672 25.816775
1624  2 0.0000 19.453924 27.426672 37.045590
1625  2 0.0000 19.453924 27.426672 48.274405
1626  2 0.0000  0.000000  0.000000  8.973552
1627  2 0.0000  0.000000  0.000000 20.202367
1628  2 0.0000  0.000000  0.000000 31.431182
1629  2 0.0000  0.000000  0.000000 42.659997
1630  2 0.0000  0.000000  0.000000 53.888812
1631  2 0.0000  0.000000  6.094816  8.973552
1632  2 0.0000  0.000000  6.094816 20.202367
1633  2 0.0000  0.000000  6.094816 31.431182
1634  2 0.0000  0.000000  6.094816 42.659997
1635  2 0.0000  0.000000  6.094816 53.888812
1636  2 0.0000  0.000000 12.189632  8.973552
1637  2 0.0000  0.000000 12.189632 20.202367
1638  2 0.0000  0.000000 12.189632 31.431182
1639  2 0.0000  0.000000 12.189632 42.659997
1640  2 0.0000  0.000000 12.189632 53.888812
1641  2 0.0000  0.000000 18.284448  8.973552
1642  2 0.0000  0.000000 18.284448 20.202367
1643  2 0.0000  0.000000 18.284448 31.431182
1644  2 0.0000  0.000000 18.284448 42.659997
1645  2 0.0000  0.000000 18.284448 53.888812
1646  2 0.0000  0.000000 24.379264  8.973552
1647  2 0.0000  0.000000 24.379264 20.202367
1648  2 0.0000  0.000000 24.379264 31.431182
1649  2 0.0000  0.000000 24.379264 42.659997
1650  2 0.0000  0.000000 24.379264 53.888812
1651  2 0.0000  4.863481  0.000000  8.973552
1652  2 0.0000  4.863481  0.000000 20.202367
1653  2 0.0000  4.863481  0.000000 31.431182
1654  2 0.0000  4.863481  0.000000 42.659997
1655  2 0.0000  4.863481  0.000000 53.888812
1656  2 0.0000  4.863481  6.094816  8.973552
1657  2 0.0000  4.863481  6.094816 20.202367
1658  2 0.0000  4.863481  6.094816 31.431182
1659  2 0.0000  4.863481  6.094816 42.659997
1660  2 0.0000  4.863481  6.094816 53.888812
1661  2 0.0000  4.863481 12.189632  8.973552
1662  2 0.0000  4.863481 12.189632 20.202367
1663  2 0.0000  4.863481 12.189632 31.431182
1664  2 0.0000  4.863481 12.189632 42.659997
1665  2 0.0000  4.863481 12.189632 53.888812
1666  2 0.0000  4.863481 18.284448  8.973552
1667  2 0.0000  4.863481 18.284448 20.202367
1668  2 0.0000  4.863481 18.284448 31.431182
1669  2 0.0000  4.863481 18.284448 42.659997
1670  2 0.0000  4.863481 18.284448 53.888812
1671  2 0.0000  4.863481 24.379264  8.973552
1672  2 0.0000  4.863481 24.379264 20.202367
1673  2 0.0000  4.863481 24.379264 31.431182
1674  2 0.0000  4.863481 24.379264 42.659997
1675  2 0.0000  4.863481 24.379264 53.888812
1676  2 0.0000  9.726962  0.000000  8.973552
1677  2 0.0000  9.726962  0.000000 20.202367
1678  2 0.0000  9.726962  0.000000 31.431182
1679  2 0.0000  9.726962  0.000000 42.659997
1680  2 0.0000  9.726962  0.000000 53.888812
1681  2 0.0000  9.726962  6.094816  8.973552
1682  2 0.0000  9.726962  6.094816 20.202367
1683  2 0.0000  9.726962  6.094816 31.431182
1684  2 0.0000  9.726962  6.094816 42.659997
1685  2 0.0000  9.726962  6.094816 53.888812
1686  2 0.0000  9.726962 12.189632  8.973552
1687  2 0.0000  9.726962 12.189632 20.202367
1688  2 0.0000  9.726962 12.189632 31.431182
1689  2 0.0000  9.726962 12.189632 42.659997
1690  2 0.0000  9.726962 12.189632 53.888812
1691  2 0.0000  9.726962 18.284448  8.973552
1692  2 0.0000  9.726962 18.284448 20.202367
1693  2 0.0000  9.726962 18.284448 31.431182
1694  2 0.0000  9.726962 18.284448 42.659997
1695  2 0.0000  9.726962 18.284448 53.888812
1696  2 0.0000  9.726962 24.379264  8.973552
1697  2 0.0000  9.726962 24.379264 20.202367
1698  2 0.0000  9.726962 24.379264 31.431182
1699  2 0.0000  9.726962 24.379264 42.659997
1700  2 0.0000  9.726962 24.379264 53.888812
1701  2 0.0000 14.590443  0.000000  8.973552
1702  2 0.0000 14.590443  0.000000 20.202367
1703  2 0.0000 14.590443  0.000000 31.431182
1704  2 0.0000 14.590443  0.000000 42.659997
1705  2 0.0000 14.590443  0.000000 53.888812
1706  2 0.0000 14.590443  6.094816  8.973552
1707  2 0.0000 14.590443  6.094816 20.202367
1708  2 0.0000 14.590443  6.094816 31.431182
1709  2 0.0000 14.590443  6.094816 42.659997
1710  2 0.0000 14.590443  6.094816 53.888812
1711  2 0.0000 14.590443 12.189632  8.973552
1712  2 0.0000 14.590443 12.189632 20.202367
1713  2 0.0000 14.590443 12.189632 31.431182
1714  2 0.0000 14.590443 12.189632 42.659997
1715  2 0.0000 14.590443 12.189632 53.888812
1716  2 0.0000 14.590443 18.284448  8.973552
1717  2 0.0000 14.590443 18.284448 20.202367
1718  2 0.0000 14.590443 18.284448 31.431182
1719  2 0.0000 14.590443 18.284448 42.659997
1720  2 0.0000 14.590443 18.284448 53.888812
1721  2 0.0000 14.590443 24.379264  8.973552
1722  2 0.0000 14.590443 24.379264 20.202367
1723  2 0.0000 14.590443 24.379264 31.431182
1724  2 0.0000 14.590443 24.379264 42.659997
1725  2 0.0000 14.590443 24.379264 53.888812
1726  2 0.0000 19.453924  0.000000  8.973552
1727  2 0.0000 19.453924  0.000000 20.202367
1728  2 0.0000 19.453924  0.000000 31.431182
1729  2 0.0000 19.453924  0.000000 42.659997
1730  2 0.0000 19.453924  0.000000 53.888812
1731  2 0.0000 19.453924  6.094816  8.973552
1732  2 0.0000 19.453924  6.094816 20.202367
1733  2 0.0000 19.453924  6.094816 31.431182
1734  2 0.0000 19.453924  6.094816 42.659997
1735  2 0.0000 19.453924  6.094816 53.888812
1736  2 0.0000 19.453924 12.189632  8.973552
1737  2 0.0000 19.453924 12.189632 20.202367
1738  2 0.0000 19.453924 12.189632 31.431182
1739  2 0.0000 19.453924 12.189632 42.659997
1740  2 0.0000 19.453924 12.189632 53.888812
1741  2 0.0000 19.453924 18.284448  8.973552
1742  2 0.0000 19.453924 18.284448 20.202367
1743  2 0.0000 19.453924 18.284448 31.431182
1744  2 0.0000 19.453924 18.284448 42.659997
1745  2 0.0000 19.453924 18.284448 53.888812
1746  2 0.0000 19.453924 24.379264  8.973552
1747  2 0.0000 19.453924 24.379264 20.202367
1748  2 0.0000 19.453924 24.379264 31.431182
1749  2 0.0000 19.453924 24.379264 42.659997
1750  2 0.0000 19.453924 24.379264 53.888812
1751  3 0.0000  2.431741  3.047408  2.237049
1752  3 0.0000  2.431741  3.047408 13.465864
1753  3 0.0000  2.431741  3.047408 24.694679
1754  3 0.0000  2.431741  3.047408 35.923494
1755  3 0.0000  2.431741  3.047408 47.152309
1756  3 0.0000  2.431741  9.142224  2.237049
1757  3 0.0000  2.431741  9.142224 13.465864
1758  3 0.0000  2.431741  9.142224 24.694679
1759  3 0.0000  2.431741  9.142224 35.923494
1760  3 0.0000  2.431741  9.142224 47.152309
1761  3 0.0000  2.431741 15.237040  2.237049
1762  3 0.0000  2.431741 15.237040 13.465864
1763  3 0.0000  2.431741 15.237040 24.694679
1764  3 0.0000  2.431741 15.237040 35.923494
1765  3 0.0000  2.431741 15.237040 47.152309
1766  3 0.0000  2.431741 21.331856  2.237049
1767  3 0.0000  2.431741 21.331856 13.465864
1768  3 0.0000  2.431741 21.331856 24.694679
1769  3 0.0000  2.431741 21.331856 35.923494
1770  3 0.0000  2.431741 21.331856 47.152309
1771  3 0.0000  2.431741 27.426672  2.237049
1772  3 0.0000  2.431741 27.426672 13.465864
1773  3 0.0000  2.431741 27.426672 24.694679
1774  3 0.0000  2.431741 27.426672 35.923494
1775  3 0.0000  2.431741 27.426672 47.152309
1776  3 0.0000  7.295222  3.047408  2.237049
1777  3 0.0000  7.295222  3.047408 13.465864
1778  3 0.0000  7.295222  3.047408 24.694679
1779  3 0.0000  7.295222  3.047408 35.923494
1780  3 0.0000  7.295222  3.047408 47.152309
1781  3 0.0000  7.295222  9.142224  2.237049
1782  3 0.0000  7.295222  9.142224 13.465864
1783  3 0.0000  7.295222  9.142224 24.694679
1784  3 0.0000  7.295222  9.142224 35.923494
1785  3 0.0000  7.295222  9.142224 47.152309
1786  3 0.0000  7.295222 15.237040  2.237049
1787  3 0.0000  7.295222 15.237040 13.465864
1788  3 0.0000  7.295222 15.237040 24.694679
1789  3 0.0000  7.295222 15.237040 35.923494
1790  3 0.0000  7.295222 15.237040 47.152309
1791  3 0.0000  7.295222 21.331856  2.237049
1792  3 0.0000  7.295222 21.331856 13.465864
1793  3 0.0000  7.295222 21.331856 24.694679
1794  3 0.0000  7.295222 21.331856 35.923494
1795  3 0.0000  7.295222 21.331856 47.152309
1796  3 0.0000  7.295222 27.426672  2.237049
1797  3 0.0000  7.295222 27.426672 13.465864
1798  3 0.0000  7.295222 27.426672 24.694679
1799  3 0.0000  7.295222 27.426672 35.923494
1800  3 0.0000  7.295222 27.426672 47.152309
1801  3 0.0000 12.158702  3.047408  2.237049
1802  3 0.0000 12.158702  3.047408 13.465864
1803  3 0.0000 12.158702  3.047408 24.694679
1804  3 0.0000 12.158702  3.047408 35.923494
1805  3 0.0000 12.158703  3.047408 47.152309
1806  3 0.0000 12.158702  9.142224  2.237049
1807  3 0.0000 12.158702  9.142224 13.465864
1808  3 0.0000 12.158703  9.142224 24.694679
1809  3 0.0000 12.158703  9.142224 35.923494
1810  3 0.0000 12.158703  9.142224 47.152309
1811  3 0.0000 12.158702 15.237040  2.237049
1812  3 0.0000 12.158702 15.237040 13.465864
1813  3 0.0000 12.158702 15.237040 24.694679
1814  3 0.0000 12.158702 15.237040 35.923494
1815  3 0.0000 12.158703 15.237040 47.152309
1816  3 0.0000 12.158703 21.331856  2.237049
1817  3 0.0000 12.158703 21.331856 13.465864
1818  3 0.0000 12.158703 21.331856 24.694679
1819  3 0.0000 12.158703 21.331856 35.923494
1820  3 0.0000 12.158703 21.331856 47.152309
1821  3 0.0000 12.158703 27.426672  2.237049
1822  3 0.0000 12.158703 27.426672 13.465864
1823  3 0.0000 12.158703 27.426672 24.694679
1824  3 0.0000 12.158703 27.426672 35.923494
1825  3 0.0000 12.158703 27.426672 47.152309
1826  3 0.0000 17.022184  3.047408  2.237049
1827  3 0.0000 17.022184  3.047408 13.465864
1828  3 0.0000 17.022184  3.047408 24.694679
1829  3 0.0000 17.022184  3.047408 35.923494
1830  3 0.0000 17.022184  3.047408 47.152309
1831  3 0.0000 17.022184  9.142224  2.237049
1832  3 0.0000 17.022184  9.142224 13.465864
1833  3 0.0000 17.022184  9.142224 24.694679
1834  3 0.0000 17.022184  9.142224 35.923494
1835  3 0.0000 17.022184  9.142224 47.152309
1836  3 0.0000 17.022184 15.237040  2.237049
1837  3 0.0000 17.022184 15.237040 13.465864
1838  3 0.0000 17.022184 15.237040 24.694679
1839  3 0.0000 17.022184 15.237040 35.923494
1840  3 0.0000 17.022184 15.237040 47.152309
1841  3 0.0000 17.022184 21.331856  2.237049
1842  3 0.0000 17.022184 21.331856 13.465864
1843  3 0.0000 17.022184 21.331856 24.694679
1844  3 0.0000 17.022184 21.331856 35.923494
1845  3 0.0000 17.022184 21.331856 47.152309
1846  3 0.0000 17.022184 27.426672  2.237049
1847  3 0.0000 17.022184 27.426672 13.465864
1848  3 0.0000 17.022184 27.426672 24.694679
1849  3 0.0000 17.022184 27.426672 35.923494
1850  3 0.0000 17.022184 27.426672 47.152309
1851  3 0.0000 21.885664  3.047408  2.237049
1852  3 0.0000 21.885664  3.047408 13.465864
1853  3 0.0000 21.885664  3.047408 24.694679
1854  3 0.0000 21.885664  3.047408 35.923494
1855  3 0.0000 21.885664  3.047408 47.152309
1856  3 0.0000 21.885664  9.142224  2.237049
1857  3 0.0000 21.885664  9.142224 13.465864
1858  3 0.0000 21.885664  9.142224 24.694679
1859  3 0.0000 21.885664  9.142224 35.923494
1860  3 0.0000 21.885664  9.142224 47.152309
1861  3 0.0000 21.885665 15.237040  2.237049
1862  3 0.0000 21.885665 15.237040 13.465864
1863  3 0.0000 21.885665 15.237040 24.694679
1864  3 0.0000 21.885665 15.237040 35.923494
1865  3 0.0000 21.885665 15.237040 47.152309
1866  3 0.0000 21.885665 21.331856  2.237049
1867  3 0.0000 21.885665 21.331856 13.465864
1868  3 0.0000 21.885665 21.331856 24.694679
1869  3 0.0000 21.885665 21.331856 35.923494
1870  3 0.0000 21.885665 21.331856 47.152309
1871  3 0.0000 21.885664 27.426672  2.237049
1872  3 0.0000 21.885664 27.426672 13.465864
1873  3 0.0000 21.885664 27.426672 24.694679
1874  3 0.0000 21.885665 27.426672 35.923494
1875  3 0.0000 21.885665 27.426672 47.152309
1876  3 0.0000  2.431741  0.000000  7.851457
1877  3 0.0000  2.431741  0.000000 19.080272
1878  3 0.0000  2.431741  0.000000 30.309087
1879  3 0.0000  2.431741  0.000000 41.537902
1880  3 0.0000  2.431741  0.000000 52.766717
1881  3 0.0000  2.431741  6.094816  7.851457
1882  3 0.0000  2.431741  6.094816 19.080272
1883  3 0.0000  2.431741  6.094816 30.309087
1884  3 0.0000  2.431741  6.094816 41.537902
1885  3 0.0000  2.431741  6.094816 52.766717
1886  3 0.0000  2.431741 12.189632  7.851457
1887  3 0.0000  2.431741 12.189632 19.080272
1888  3 0.0000  2.431741 12.189632 30.309087
1889  3 0.0000  2.431741 12.189632 41.537902
1890  3 0.0000  2.431741 12.189632 52.766717
1891  3 0.0000  2.431741 18.284448  7.851457
1892  3 0.0000  2.431741 18.284448 19.080272
1893  3 0.0000  2.431741 18.284448 30.309087
1894  3 0.0000  2.431741 18.284448 41.537902
1895  3 0.0000  2.431741 18.284448 52.766717
1896  3 0.0000  2.431741 24.379264  7.851457
1897  3 0.0000  2.431741 24.379264 19.080272
1898  3 0.0000  2.431741 24.379264 30.309087
1899  3 0.0000  2.431741 24.379264 41.537902
1900  3 0.0000  2.431741 24.379264 52.766717
1901  3 0.0000  7.295222  0.000000  7.851457
1902  3 0.0000  7.295222  0.000000 19.080272
1903  3 0.0000  7.295222  0.000000 30.309087
1904  3 0.0000  7.295222  0.000000 41.537902
1905  3 0.0000  7.295222  0.000000 52.766717
1906  3 0.0000  7.295222  6.094816  7.851457
1907  3 0.0000  7.295222  6.094816 19.080272
1908  3 0.0000  7.295222  6.094816 30.309087
1909  3 0.0000  7.295222  6.094816 41.537902
1910  3 0.0000  7.295222  6.094816 52.766717
1911  3 0.0000  7.295222 12.189632  7.851457
1912  3 0.0000  7.295222 12.189632 19.080272
1913  3 0.0000  7.295222 12.189632 30.309087
1914  3 0.0000  7.295222 12.189632 41.537902
1915  3 0.0000  7.295222 12.189632 52.766717
1916  3 0.0000  7.295222 18.284448  7.851457
1917  3 0.0000  7.295222 18.284448 19.080272
1918  3 0.0000  7.295222 18.284448 30.309087
1919  3 0.0000  7.295222 18.284448 41.537902
1920  3 0.0000  7.295222 18.284448 52.766717
1921  3 0.0000  7.295222 24.379264  7.851457
1922  3 0.0000  7.295222 24.379264 19.080272
1923  3 0.0000  7.295222 24.379264 30.309087
1924  3 0.0000  7.295222 24.379264 41.537902
1925  3 0.0000  7.295222 24.379264 52.766717
1926  3 0.0000 12.158702  0.000000  7.851457
1927  3 0.0000 12.158702  0.000000 19.080272
1928  3 0.0000 12.158702  0.000000 30.309087
1929  3 0.0000 12.158702  0.000000 41.537902
1930  3 0.0000 12.158703  0.000000 52.766717
1931  3 0.0000 12.158702  6.094816  7.851457
1932  3 0.0000 12.158703  6.094816 19.080272
1933  3 0.0000 12.158703  6.094816 30.309087
1934  3 0.0000 12.158703  6.094816 41.537902
1935  3 0.0000 12.158703  6.094816 52.766717
1936  3 0.0000 12.158702 12.189632  7.851457
1937  3 0.0000 12.158703 12.189632 19.080272
1938  3 0.0000 12.158703 12.189632 30.309087
1939  3 0.0000 12.158703 12.189632 41.537902
1940  3 0.0000 12.158703 12.189632 52.766717
1941  3 0.0000 12.158703 18.284448  7.851457
1942  3 0.0000 12.158703 18.284448 19.080272
1943  3 0.0000 12.158703 18.284448 30.309087
1944  3 0.0000 12.158703 18.284448 41.537902
1945  3 0.0000 12.158703 18.284448 52.766717
1946  3 0.0000 12.158703 24.379264  7.851457
1947  3 0.0000 12.158703 24.379264 19.080272
1948  3 0.0000 12.158703 24.379264 30.309087
1949  3 0.0000 12.158703 24.379264 41.537902
1950  3 0.0000 12.158703 24.379264 52.766717
1951  3 0.0000 17.022184  0.000000  7.851457
1952  3 0.0000 17.022184  0.000000 19.080272
1953  3 0.0000 17.022184  0.000000 30.309087
1954  3 0.0000 17.022184  0.000000 41.537902
1955  3 0.0000 17.022184  0.000000 52.766717
1956  3 0.0000 17.022184  6.094816  7.851457
1957  3 0.0000 17.022184  6.094816 19.080272
1958  3 0.0000 17.022184  6.094816 30.309087
1959  3 0.0000 17.022184  6.094816 41.537902
1960  3 0.0000 17.022184  6.094816 52.766717
1961  3 0.0000 17.022184 12.189632  7.851457
1962  3 0.0000 17.022184 12.189632 19.080272
1963  3 0.0000 17.022184 12.189632 30.309087
1964  3 0.0000 17.022184 12.189632 41.537902
1965  3 0.0000 17.022184 12.189632 52.766717
1966  3 0.0000 17.022184 18.284448  7.851457
1967  3 0.0000 17.022184 18.284448 19.080272
1968  3 0.0000 17.022184 18.284448 30.309087
1969  3 0.0000 17.022184 18.284448 41.537902
1970  3 0.0000 17.022184 18.284448 52.766717
1971  3 0.0000 17.022184 24.379264  7.851457
1972  3 0.0000 17.022184 24.379264 19.080272
1973  3 0.0000 17.022184 24.379264 30.309087
1974  3 0.0000 17.022184 24.379264 41.537902
1975  3 0.0000 17.022184 24.379264 52.766717
1976  3 0.0000 21.885664  0.000000  7.851457
1977  3 0.0000 21.885664  0.000000 19.080272
1978  3 0.0000 21.885664  0.000000 30.309087
1979  3 0.0000 21.885664  0.000000 41.537902
1980  3 0.0000 21.885664  0.000000 52.766717
1981  3 0.0000 21.885664  6.094816  7.851457
1982  3 0.0000 21.885664  6.094816 19.080272
1983  3 0.0000 21.885664  6.094816 30.309087
1984  3 0.0000 21.885664  6.094816 41.537902
1985  3 0.0000 21.885664  6.094816 52.766717
1986  3 0.0000 21.885665 12.189632  7.851457
1987  3 0.0000 21.885665 12.189632 19.080272
1988  3 0.0000 21.885665 12.189632 30.309087
1989  3 0.0000 21.885665 12.189632 41.537902
1990  3 0.0000 21.885665 12.189632 52.766717
1991  3 0.0000 21.885665 18.284448  7.851457
1992  3 0.0000 21.885665 18.284448 19.080272
1993  3 0.0000 21.885665 18.284448 30.309087
1994  3 0.0000 21.885665 18.284448 41.537902
1995  3 0.0000 21.885665 18.284448 52.766717
1996  3 0.0000 21.885665 24.379264  7.851457
1997  3 0.0000 21.885665 24.379264 19.080272
1998  3 0.0000 21.885665 24.379264 30.309087
1999  3 0.0000 21.885665 24.379264 41.537902
2000  3 0.0000 21.885665 24.379264 52.766717

