Generated by pymatgen.io.lammps.data.LammpsData

256  atoms

  2  atom types

0.000000 12.755722  xlo xhi
0.000000 22.093558  ylo yhi
0.000000 10.384714  zlo zhi

Masses

1  69.7230
2  14.0067

Atoms

1    1 0.0000  1.594465  0.920565  2.591421
2    1 0.0000  1.594465  0.920565  7.783778
3    1 0.0000  1.594465  6.443954  2.591421
4    1 0.0000  1.594465  6.443954  7.783778
5    1 0.0000  1.594465 11.967344  2.591421
6    1 0.0000  1.594465 11.967344  7.783778
7    1 0.0000  1.594465 17.490733  2.591421
8    1 0.0000  1.594465 17.490733  7.783778
9    1 0.0000  4.783396  0.920565  2.591421
10   1 0.0000  4.783396  0.920565  7.783778
11   1 0.0000  4.783396  6.443954  2.591421
12   1 0.0000  4.783396  6.443954  7.783778
13   1 0.0000  4.783396 11.967344  2.591421
14   1 0.0000  4.783396 11.967344  7.783778
15   1 0.0000  4.783396 17.490733  2.591421
16   1 0.0000  4.783396 17.490733  7.783778
17   1 0.0000  7.972326  0.920565  2.591421
18   1 0.0000  7.972326  0.920565  7.783778
19   1 0.0000  7.972326  6.443954  2.591421
20   1 0.0000  7.972326  6.443954  7.783778
21   1 0.0000  7.972326 11.967344  2.591421
22   1 0.0000  7.972326 11.967344  7.783778
23   1 0.0000  7.972326 17.490733  2.591421
24   1 0.0000  7.972326 17.490733  7.783778
25   1 0.0000 11.161256  0.920565  2.591421
26   1 0.0000 11.161256  0.920565  7.783778
27   1 0.0000 11.161256  6.443954  2.591421
28   1 0.0000 11.161256  6.443954  7.783778
29   1 0.0000 11.161256 11.967344  2.591421
30   1 0.0000 11.161256 11.967344  7.783778
31   1 0.0000 11.161256 17.490733  2.591421
32   1 0.0000 11.161256 17.490733  7.783778
33   1 0.0000  0.000000  3.682260  2.591421
34   1 0.0000  0.000000  3.682260  7.783778
35   1 0.0000  0.000000  9.205649  2.591421
36   1 0.0000  0.000000  9.205649  7.783778
37   1 0.0000  0.000000 14.729039  2.591421
38   1 0.0000  0.000000 14.729039  7.783778
39   1 0.0000  0.000000 20.252428  2.591421
40   1 0.0000  0.000000 20.252428  7.783778
41   1 0.0000  3.188930  3.682260  2.591421
42   1 0.0000  3.188930  3.682260  7.783778
43   1 0.0000  3.188930  9.205649  2.591421
44   1 0.0000  3.188930  9.205649  7.783778
45   1 0.0000  3.188930 14.729039  2.591421
46   1 0.0000  3.188930 14.729039  7.783778
47   1 0.0000  3.188930 20.252428  2.591421
48   1 0.0000  3.188930 20.252428  7.783778
49   1 0.0000  6.377861  3.682260  2.591421
50   1 0.0000  6.377861  3.682260  7.783778
51   1 0.0000  6.377861  9.205649  2.591421
52   1 0.0000  6.377861  9.205649  7.783778
53   1 0.0000  6.377861 14.729039  2.591421
54   1 0.0000  6.377861 14.729039  7.783778
55   1 0.0000  6.377861 20.252428  2.591421
56   1 0.0000  6.377861 20.252428  7.783778
57   1 0.0000  9.566791  3.682260  2.591421
58   1 0.0000  9.566791  3.682260  7.783778
59   1 0.0000  9.566791  9.205649  2.591421
60   1 0.0000  9.566791  9.205649  7.783778
61   1 0.0000  9.566791 14.729039  2.591421
62   1 0.0000  9.566791 14.729039  7.783778
63   1 0.0000  9.566791 20.252428  2.591421
64   1 0.0000  9.566791 20.252428  7.783778
65   1 0.0000  0.000000  1.841130  5.187600
66   1 0.0000  0.000000  1.841130 10.379957
67   1 0.0000  0.000000  7.364519  5.187600
68   1 0.0000  0.000000  7.364519 10.379957
69   1 0.0000  0.000000 12.887909  5.187600
70   1 0.0000  0.000000 12.887909 10.379957
71   1 0.0000 12.755722 18.411298  5.187600
72   1 0.0000 12.755722 18.411298 10.379957
73   1 0.0000  3.188930  1.841130  5.187600
74   1 0.0000  3.188930  1.841130 10.379957
75   1 0.0000  3.188930  7.364519  5.187600
76   1 0.0000  3.188930  7.364519 10.379957
77   1 0.0000  3.188930 12.887909  5.187600
78   1 0.0000  3.188930 12.887909 10.379957
79   1 0.0000  3.188930 18.411298  5.187600
80   1 0.0000  3.188930 18.411298 10.379957
81   1 0.0000  6.377861  1.841130  5.187600
82   1 0.0000  6.377861  1.841130 10.379957
83   1 0.0000  6.377861  7.364519  5.187600
84   1 0.0000  6.377861  7.364519 10.379957
85   1 0.0000  6.377861 12.887909  5.187600
86   1 0.0000  6.377861 12.887909 10.379957
87   1 0.0000  6.377861 18.411298  5.187600
88   1 0.0000  6.377861 18.411298 10.379957
89   1 0.0000  9.566791  1.841130  5.187600
90   1 0.0000  9.566791  1.841130 10.379957
91   1 0.0000  9.566791  7.364519  5.187600
92   1 0.0000  9.566791  7.364519 10.379957
93   1 0.0000  9.566791 12.887909  5.187600
94   1 0.0000  9.566791 12.887909 10.379957
95   1 0.0000  9.566791 18.411298  5.187600
96   1 0.0000  9.566791 18.411298 10.379957
97   1 0.0000  1.594465  4.602825  5.187600
98   1 0.0000  1.594465  4.602825 10.379957
99   1 0.0000  1.594465 10.126214  5.187600
100  1 0.0000  1.594465 10.126214 10.379957
101  1 0.0000  1.594465 15.649604  5.187600
102  1 0.0000  1.594465 15.649604 10.379957
103  1 0.0000  1.594465 21.172993  5.187600
104  1 0.0000  1.594465 21.172993 10.379957
105  1 0.0000  4.783396  4.602825  5.187600
106  1 0.0000  4.783396  4.602825 10.379957
107  1 0.0000  4.783396 10.126214  5.187600
108  1 0.0000  4.783396 10.126214 10.379957
109  1 0.0000  4.783396 15.649604  5.187600
110  1 0.0000  4.783396 15.649604 10.379957
111  1 0.0000  4.783396 21.172993  5.187600
112  1 0.0000  4.783396 21.172993 10.379957
113  1 0.0000  7.972326  4.602825  5.187600
114  1 0.0000  7.972326  4.602825 10.379957
115  1 0.0000  7.972326 10.126214  5.187600
116  1 0.0000  7.972326 10.126214 10.379957
117  1 0.0000  7.972326 15.649604  5.187600
118  1 0.0000  7.972326 15.649604 10.379957
119  1 0.0000  7.972326 21.172993  5.187600
120  1 0.0000  7.972326 21.172993 10.379957
121  1 0.0000 11.161256  4.602825  5.187600
122  1 0.0000 11.161256  4.602825 10.379957
123  1 0.0000 11.161256 10.126214  5.187600
124  1 0.0000 11.161256 10.126214 10.379957
125  1 0.0000 11.161256 15.649604  5.187600
126  1 0.0000 11.161256 15.649604 10.379957
127  1 0.0000 11.161256 21.172993  5.187600
128  1 0.0000 11.161256 21.172993 10.379957
129  2 0.0000  1.594465  0.920565  4.548070
130  2 0.0000  1.594465  0.920565  9.740428
131  2 0.0000  1.594465  6.443954  4.548070
132  2 0.0000  1.594465  6.443954  9.740428
133  2 0.0000  1.594465 11.967344  4.548070
134  2 0.0000  1.594465 11.967344  9.740428
135  2 0.0000  1.594465 17.490733  4.548070
136  2 0.0000  1.594465 17.490733  9.740428
137  2 0.0000  4.783396  0.920565  4.548070
138  2 0.0000  4.783396  0.920565  9.740428
139  2 0.0000  4.783396  6.443954  4.548070
140  2 0.0000  4.783396  6.443954  9.740428
141  2 0.0000  4.783396 11.967344  4.548070
142  2 0.0000  4.783396 11.967344  9.740428
143  2 0.0000  4.783396 17.490733  4.548070
144  2 0.0000  4.783396 17.490733  9.740428
145  2 0.0000  7.972326  0.920565  4.548070
146  2 0.0000  7.972326  0.920565  9.740428
147  2 0.0000  7.972326  6.443954  4.548070
148  2 0.0000  7.972326  6.443954  9.740428
149  2 0.0000  7.972326 11.967344  4.548070
150  2 0.0000  7.972326 11.967344  9.740428
151  2 0.0000  7.972326 17.490733  4.548070
152  2 0.0000  7.972326 17.490733  9.740428
153  2 0.0000 11.161256  0.920565  4.548070
154  2 0.0000 11.161256  0.920565  9.740428
155  2 0.0000 11.161256  6.443954  4.548070
156  2 0.0000 11.161256  6.443954  9.740428
157  2 0.0000 11.161256 11.967344  4.548070
158  2 0.0000 11.161256 11.967344  9.740428
159  2 0.0000 11.161256 17.490733  4.548070
160  2 0.0000 11.161256 17.490733  9.740428
161  2 0.0000  0.000000  3.682260  4.548070
162  2 0.0000  0.000000  3.682260  9.740428
163  2 0.0000  0.000000  9.205649  4.548070
164  2 0.0000  0.000000  9.205649  9.740428
165  2 0.0000  0.000000 14.729039  4.548070
166  2 0.0000  0.000000 14.729039  9.740428
167  2 0.0000  0.000000 20.252428  4.548070
168  2 0.0000  0.000000 20.252428  9.740428
169  2 0.0000  3.188930  3.682260  4.548070
170  2 0.0000  3.188930  3.682260  9.740428
171  2 0.0000  3.188930  9.205649  4.548070
172  2 0.0000  3.188930  9.205649  9.740428
173  2 0.0000  3.188930 14.729039  4.548070
174  2 0.0000  3.188930 14.729039  9.740428
175  2 0.0000  3.188930 20.252428  4.548070
176  2 0.0000  3.188930 20.252428  9.740428
177  2 0.0000  6.377861  3.682260  4.548070
178  2 0.0000  6.377861  3.682260  9.740428
179  2 0.0000  6.377861  9.205649  4.548070
180  2 0.0000  6.377861  9.205649  9.740428
181  2 0.0000  6.377861 14.729039  4.548070
182  2 0.0000  6.377861 14.729039  9.740428
183  2 0.0000  6.377861 20.252428  4.548070
184  2 0.0000  6.377861 20.252428  9.740428
185  2 0.0000  9.566791  3.682260  4.548070
186  2 0.0000  9.566791  3.682260  9.740428
187  2 0.0000  9.566791  9.205649  4.548070
188  2 0.0000  9.566791  9.205649  9.740428
189  2 0.0000  9.566791 14.729039  4.548070
190  2 0.0000  9.566791 14.729039  9.740428
191  2 0.0000  9.566791 20.252428  4.548070
192  2 0.0000  9.566791 20.252428  9.740428
193  2 0.0000  0.000000  1.841130  1.951892
194  2 0.0000  0.000000  1.841130  7.144249
195  2 0.0000  0.000000  7.364519  1.951892
196  2 0.0000  0.000000  7.364519  7.144249
197  2 0.0000  0.000000 12.887909  1.951892
198  2 0.0000  0.000000 12.887909  7.144249
199  2 0.0000 12.755722 18.411298  1.951892
200  2 0.0000 12.755722 18.411298  7.144249
201  2 0.0000  3.188930  1.841130  1.951892
202  2 0.0000  3.188930  1.841130  7.144249
203  2 0.0000  3.188930  7.364519  1.951892
204  2 0.0000  3.188930  7.364519  7.144249
205  2 0.0000  3.188930 12.887909  1.951892
206  2 0.0000  3.188930 12.887909  7.144249
207  2 0.0000  3.188930 18.411298  1.951892
208  2 0.0000  3.188930 18.411298  7.144249
209  2 0.0000  6.377861  1.841130  1.951892
210  2 0.0000  6.377861  1.841130  7.144249
211  2 0.0000  6.377861  7.364519  1.951892
212  2 0.0000  6.377861  7.364519  7.144249
213  2 0.0000  6.377861 12.887909  1.951892
214  2 0.0000  6.377861 12.887909  7.144249
215  2 0.0000  6.377861 18.411298  1.951892
216  2 0.0000  6.377861 18.411298  7.144249
217  2 0.0000  9.566791  1.841130  1.951892
218  2 0.0000  9.566791  1.841130  7.144249
219  2 0.0000  9.566791  7.364519  1.951892
220  2 0.0000  9.566791  7.364519  7.144249
221  2 0.0000  9.566791 12.887909  1.951892
222  2 0.0000  9.566791 12.887909  7.144249
223  2 0.0000  9.566791 18.411298  1.951892
224  2 0.0000  9.566791 18.411298  7.144249
225  2 0.0000  1.594465  4.602825  1.951892
226  2 0.0000  1.594465  4.602825  7.144249
227  2 0.0000  1.594465 10.126214  1.951892
228  2 0.0000  1.594465 10.126214  7.144249
229  2 0.0000  1.594465 15.649604  1.951892
230  2 0.0000  1.594465 15.649604  7.144249
231  2 0.0000  1.594465 21.172993  1.951892
232  2 0.0000  1.594465 21.172993  7.144249
233  2 0.0000  4.783396  4.602825  1.951892
234  2 0.0000  4.783396  4.602825  7.144249
235  2 0.0000  4.783396 10.126214  1.951892
236  2 0.0000  4.783396 10.126214  7.144249
237  2 0.0000  4.783396 15.649604  1.951892
238  2 0.0000  4.783396 15.649604  7.144249
239  2 0.0000  4.783396 21.172993  1.951892
240  2 0.0000  4.783396 21.172993  7.144249
241  2 0.0000  7.972326  4.602825  1.951892
242  2 0.0000  7.972326  4.602825  7.144249
243  2 0.0000  7.972326 10.126214  1.951892
244  2 0.0000  7.972326 10.126214  7.144249
245  2 0.0000  7.972326 15.649604  1.951892
246  2 0.0000  7.972326 15.649604  7.144249
247  2 0.0000  7.972326 21.172993  1.951892
248  2 0.0000  7.972326 21.172993  7.144249
249  2 0.0000 11.161256  4.602825  1.951892
250  2 0.0000 11.161256  4.602825  7.144249
251  2 0.0000 11.161256 10.126214  1.951892
252  2 0.0000 11.161256 10.126214  7.144249
253  2 0.0000 11.161256 15.649604  1.951892
254  2 0.0000 11.161256 15.649604  7.144249
255  2 0.0000 11.161256 21.172993  1.951892
256  2 0.0000 11.161256 21.172993  7.144249

