Generated by pymatgen.io.lammps.data.LammpsData

1000  atoms

   2  atom types

0.000000 17.966228  xlo xhi
0.000000 15.559224  ylo yhi
0.000000 80.073280  zlo zhi
-8.983126 0.000000 0.000000  xy xz yz

Masses

1  69.723
2  32.065

Atoms

1     1 0.0000 -0.000002  2.074563  5.227978
2     1 0.0000 -0.000002  2.074563 21.242634
3     1 0.0000 -0.000002  2.074563 37.257290
4     1 0.0000 -0.000002  2.074563 53.271946
5     1 0.0000 -0.000002  2.074563 69.286602
6     1 0.0000 -1.796627  5.186408  5.227978
7     1 0.0000 -1.796627  5.186408 21.242634
8     1 0.0000 -1.796627  5.186408 37.257290
9     1 0.0000 -1.796627  5.186408 53.271946
10    1 0.0000 -1.796627  5.186408 69.286602
11    1 0.0000 -3.593252  8.298253  5.227978
12    1 0.0000 -3.593252  8.298253 21.242634
13    1 0.0000 -3.593252  8.298253 37.257290
14    1 0.0000 -3.593252  8.298253 53.271946
15    1 0.0000 -3.593252  8.298253 69.286602
16    1 0.0000 -5.389878 11.410097  5.227978
17    1 0.0000 -5.389878 11.410097 21.242634
18    1 0.0000 -5.389878 11.410097 37.257290
19    1 0.0000 -5.389878 11.410097 53.271946
20    1 0.0000 -5.389878 11.410097 69.286602
21    1 0.0000 -7.186503 14.521942  5.227978
22    1 0.0000 -7.186503 14.521942 21.242634
23    1 0.0000 -7.186503 14.521942 37.257290
24    1 0.0000 -7.186503 14.521942 53.271946
25    1 0.0000 -7.186503 14.521942 69.286602
26    1 0.0000  3.593244  2.074563  5.227978
27    1 0.0000  3.593244  2.074563 21.242634
28    1 0.0000  3.593244  2.074563 37.257290
29    1 0.0000  3.593244  2.074563 53.271946
30    1 0.0000  3.593244  2.074563 69.286602
31    1 0.0000  1.796619  5.186408  5.227978
32    1 0.0000  1.796619  5.186408 21.242634
33    1 0.0000  1.796619  5.186408 37.257290
34    1 0.0000  1.796619  5.186408 53.271946
35    1 0.0000  1.796619  5.186408 69.286602
36    1 0.0000 -0.000007  8.298253  5.227978
37    1 0.0000 -0.000007  8.298253 21.242634
38    1 0.0000 -0.000007  8.298253 37.257290
39    1 0.0000 -0.000007  8.298253 53.271946
40    1 0.0000 -0.000007  8.298253 69.286602
41    1 0.0000 -1.796632 11.410097  5.227978
42    1 0.0000 -1.796632 11.410097 21.242634
43    1 0.0000 -1.796632 11.410097 37.257290
44    1 0.0000 -1.796632 11.410097 53.271946
45    1 0.0000 -1.796632 11.410097 69.286602
46    1 0.0000 -3.593257 14.521942  5.227978
47    1 0.0000 -3.593257 14.521942 21.242634
48    1 0.0000 -3.593257 14.521942 37.257290
49    1 0.0000 -3.593257 14.521942 53.271946
50    1 0.0000 -3.593257 14.521942 69.286602
51    1 0.0000  7.186489  2.074563  5.227978
52    1 0.0000  7.186489  2.074563 21.242634
53    1 0.0000  7.186489  2.074563 37.257290
54    1 0.0000  7.186489  2.074563 53.271946
55    1 0.0000  7.186489  2.074563 69.286602
56    1 0.0000  5.389864  5.186408  5.227978
57    1 0.0000  5.389864  5.186408 21.242634
58    1 0.0000  5.389864  5.186408 37.257290
59    1 0.0000  5.389864  5.186408 53.271946
60    1 0.0000  5.389864  5.186408 69.286602
61    1 0.0000  3.593239  8.298253  5.227978
62    1 0.0000  3.593239  8.298253 21.242634
63    1 0.0000  3.593239  8.298253 37.257290
64    1 0.0000  3.593239  8.298253 53.271946
65    1 0.0000  3.593239  8.298253 69.286602
66    1 0.0000  1.796613 11.410097  5.227978
67    1 0.0000  1.796613 11.410097 21.242634
68    1 0.0000  1.796613 11.410097 37.257290
69    1 0.0000  1.796613 11.410097 53.271946
70    1 0.0000  1.796613 11.410097 69.286602
71    1 0.0000 -0.000012 14.521942  5.227978
72    1 0.0000 -0.000012 14.521942 21.242634
73    1 0.0000 -0.000012 14.521942 37.257290
74    1 0.0000 -0.000012 14.521942 53.271946
75    1 0.0000 -0.000012 14.521942 69.286602
76    1 0.0000 10.779735  2.074563  5.227978
77    1 0.0000 10.779735  2.074563 21.242634
78    1 0.0000 10.779735  2.074563 37.257290
79    1 0.0000 10.779735  2.074563 53.271946
80    1 0.0000 10.779735  2.074563 69.286602
81    1 0.0000  8.983110  5.186408  5.227978
82    1 0.0000  8.983110  5.186408 21.242634
83    1 0.0000  8.983110  5.186408 37.257290
84    1 0.0000  8.983110  5.186408 53.271946
85    1 0.0000  8.983110  5.186408 69.286602
86    1 0.0000  7.186484  8.298253  5.227978
87    1 0.0000  7.186484  8.298253 21.242634
88    1 0.0000  7.186484  8.298253 37.257290
89    1 0.0000  7.186484  8.298253 53.271946
90    1 0.0000  7.186484  8.298253 69.286602
91    1 0.0000  5.389859 11.410097  5.227978
92    1 0.0000  5.389859 11.410097 21.242634
93    1 0.0000  5.389859 11.410097 37.257290
94    1 0.0000  5.389859 11.410097 53.271946
95    1 0.0000  5.389859 11.410097 69.286602
96    1 0.0000  3.593234 14.521942  5.227978
97    1 0.0000  3.593234 14.521942 21.242634
98    1 0.0000  3.593234 14.521942 37.257290
99    1 0.0000  3.593234 14.521942 53.271946
100   1 0.0000  3.593234 14.521942 69.286602
101   1 0.0000 14.372980  2.074563  5.227978
102   1 0.0000 14.372980  2.074563 21.242634
103   1 0.0000 14.372980  2.074563 37.257290
104   1 0.0000 14.372980  2.074563 53.271946
105   1 0.0000 14.372980  2.074563 69.286602
106   1 0.0000 12.576355  5.186408  5.227978
107   1 0.0000 12.576355  5.186408 21.242634
108   1 0.0000 12.576355  5.186408 37.257290
109   1 0.0000 12.576355  5.186408 53.271946
110   1 0.0000 12.576355  5.186408 69.286602
111   1 0.0000 10.779730  8.298253  5.227978
112   1 0.0000 10.779730  8.298253 21.242634
113   1 0.0000 10.779730  8.298253 37.257290
114   1 0.0000 10.779730  8.298253 53.271946
115   1 0.0000 10.779730  8.298253 69.286602
116   1 0.0000  8.983104 11.410097  5.227978
117   1 0.0000  8.983104 11.410097 21.242634
118   1 0.0000  8.983104 11.410097 37.257290
119   1 0.0000  8.983104 11.410097 53.271946
120   1 0.0000  8.983104 11.410097 69.286602
121   1 0.0000  7.186479 14.521942  5.227978
122   1 0.0000  7.186479 14.521942 21.242634
123   1 0.0000  7.186479 14.521942 37.257290
124   1 0.0000  7.186479 14.521942 53.271946
125   1 0.0000  7.186479 14.521942 69.286602
126   1 0.0000  1.796622  1.037282 13.235306
127   1 0.0000  1.796622  1.037282 29.249962
128   1 0.0000  1.796622  1.037282 45.264618
129   1 0.0000  1.796622  1.037282 61.279274
130   1 0.0000  1.796622  1.037282 77.293930
131   1 0.0000 -0.000003  4.149126 13.235306
132   1 0.0000 -0.000003  4.149126 29.249962
133   1 0.0000 -0.000003  4.149126 45.264618
134   1 0.0000 -0.000003  4.149126 61.279274
135   1 0.0000 -0.000003  4.149126 77.293930
136   1 0.0000 -1.796629  7.260971 13.235306
137   1 0.0000 -1.796629  7.260971 29.249962
138   1 0.0000 -1.796629  7.260971 45.264618
139   1 0.0000 -1.796629  7.260971 61.279274
140   1 0.0000 -1.796629  7.260971 77.293930
141   1 0.0000 -3.593254 10.372816 13.235306
142   1 0.0000 -3.593254 10.372816 29.249962
143   1 0.0000 -3.593254 10.372816 45.264618
144   1 0.0000 -3.593254 10.372816 61.279274
145   1 0.0000 -3.593254 10.372816 77.293930
146   1 0.0000 -5.389879 13.484660 13.235306
147   1 0.0000 -5.389879 13.484660 29.249962
148   1 0.0000 -5.389879 13.484660 45.264618
149   1 0.0000 -5.389879 13.484660 61.279274
150   1 0.0000 -5.389879 13.484660 77.293930
151   1 0.0000  5.389867  1.037282 13.235306
152   1 0.0000  5.389867  1.037282 29.249962
153   1 0.0000  5.389867  1.037282 45.264618
154   1 0.0000  5.389867  1.037282 61.279274
155   1 0.0000  5.389867  1.037282 77.293930
156   1 0.0000  3.593242  4.149126 13.235306
157   1 0.0000  3.593242  4.149126 29.249962
158   1 0.0000  3.593242  4.149126 45.264618
159   1 0.0000  3.593242  4.149126 61.279274
160   1 0.0000  3.593242  4.149126 77.293930
161   1 0.0000  1.796617  7.260971 13.235306
162   1 0.0000  1.796617  7.260971 29.249962
163   1 0.0000  1.796617  7.260971 45.264618
164   1 0.0000  1.796617  7.260971 61.279274
165   1 0.0000  1.796617  7.260971 77.293930
166   1 0.0000 -0.000008 10.372816 13.235306
167   1 0.0000 -0.000008 10.372816 29.249962
168   1 0.0000 -0.000008 10.372816 45.264618
169   1 0.0000 -0.000008 10.372816 61.279274
170   1 0.0000 -0.000008 10.372816 77.293930
171   1 0.0000 -1.796634 13.484660 13.235306
172   1 0.0000 -1.796634 13.484660 29.249962
173   1 0.0000 -1.796634 13.484660 45.264618
174   1 0.0000 -1.796634 13.484660 61.279274
175   1 0.0000 -1.796634 13.484660 77.293930
176   1 0.0000  8.983113  1.037282 13.235306
177   1 0.0000  8.983113  1.037282 29.249962
178   1 0.0000  8.983113  1.037282 45.264618
179   1 0.0000  8.983113  1.037282 61.279274
180   1 0.0000  8.983113  1.037282 77.293930
181   1 0.0000  7.186488  4.149126 13.235306
182   1 0.0000  7.186488  4.149126 29.249962
183   1 0.0000  7.186488  4.149126 45.264618
184   1 0.0000  7.186488  4.149126 61.279274
185   1 0.0000  7.186488  4.149126 77.293930
186   1 0.0000  5.389862  7.260971 13.235306
187   1 0.0000  5.389862  7.260971 29.249962
188   1 0.0000  5.389862  7.260971 45.264618
189   1 0.0000  5.389862  7.260971 61.279274
190   1 0.0000  5.389862  7.260971 77.293930
191   1 0.0000  3.593237 10.372816 13.235306
192   1 0.0000  3.593237 10.372816 29.249962
193   1 0.0000  3.593237 10.372816 45.264618
194   1 0.0000  3.593237 10.372816 61.279274
195   1 0.0000  3.593237 10.372816 77.293930
196   1 0.0000  1.796612 13.484660 13.235306
197   1 0.0000  1.796612 13.484660 29.249962
198   1 0.0000  1.796612 13.484660 45.264618
199   1 0.0000  1.796612 13.484660 61.279274
200   1 0.0000  1.796612 13.484660 77.293930
201   1 0.0000 12.576358  1.037282 13.235306
202   1 0.0000 12.576358  1.037282 29.249962
203   1 0.0000 12.576358  1.037282 45.264618
204   1 0.0000 12.576358  1.037282 61.279274
205   1 0.0000 12.576358  1.037282 77.293930
206   1 0.0000 10.779733  4.149126 13.235306
207   1 0.0000 10.779733  4.149126 29.249962
208   1 0.0000 10.779733  4.149126 45.264618
209   1 0.0000 10.779733  4.149126 61.279274
210   1 0.0000 10.779733  4.149126 77.293930
211   1 0.0000  8.983108  7.260971 13.235306
212   1 0.0000  8.983108  7.260971 29.249962
213   1 0.0000  8.983108  7.260971 45.264618
214   1 0.0000  8.983108  7.260971 61.279274
215   1 0.0000  8.983108  7.260971 77.293930
216   1 0.0000  7.186483 10.372816 13.235306
217   1 0.0000  7.186483 10.372816 29.249962
218   1 0.0000  7.186483 10.372816 45.264618
219   1 0.0000  7.186483 10.372816 61.279274
220   1 0.0000  7.186483 10.372816 77.293930
221   1 0.0000  5.389857 13.484660 13.235306
222   1 0.0000  5.389857 13.484660 29.249962
223   1 0.0000  5.389857 13.484660 45.264618
224   1 0.0000  5.389857 13.484660 61.279274
225   1 0.0000  5.389857 13.484660 77.293930
226   1 0.0000 16.169604  1.037282 13.235306
227   1 0.0000 16.169604  1.037282 29.249962
228   1 0.0000 16.169604  1.037282 45.264618
229   1 0.0000 16.169604  1.037282 61.279274
230   1 0.0000 16.169604  1.037282 77.293930
231   1 0.0000 14.372979  4.149126 13.235306
232   1 0.0000 14.372979  4.149126 29.249962
233   1 0.0000 14.372979  4.149126 45.264618
234   1 0.0000 14.372979  4.149126 61.279274
235   1 0.0000 14.372979  4.149126 77.293930
236   1 0.0000 12.576353  7.260971 13.235306
237   1 0.0000 12.576353  7.260971 29.249962
238   1 0.0000 12.576353  7.260971 45.264618
239   1 0.0000 12.576353  7.260971 61.279274
240   1 0.0000 12.576353  7.260971 77.293930
241   1 0.0000 10.779728 10.372816 13.235306
242   1 0.0000 10.779728 10.372816 29.249962
243   1 0.0000 10.779728 10.372816 45.264618
244   1 0.0000 10.779728 10.372816 61.279274
245   1 0.0000 10.779728 10.372816 77.293930
246   1 0.0000  8.983103 13.484660 13.235306
247   1 0.0000  8.983103 13.484660 29.249962
248   1 0.0000  8.983103 13.484660 45.264618
249   1 0.0000  8.983103 13.484660 61.279274
250   1 0.0000  8.983103 13.484660 77.293930
251   1 0.0000  1.796622  1.037282 10.786678
252   1 0.0000  1.796622  1.037282 26.801334
253   1 0.0000  1.796622  1.037282 42.815990
254   1 0.0000  1.796622  1.037282 58.830646
255   1 0.0000  1.796622  1.037282 74.845302
256   1 0.0000 -0.000003  4.149126 10.786678
257   1 0.0000 -0.000003  4.149126 26.801334
258   1 0.0000 -0.000003  4.149126 42.815990
259   1 0.0000 -0.000003  4.149126 58.830646
260   1 0.0000 -0.000003  4.149126 74.845302
261   1 0.0000 -1.796629  7.260971 10.786678
262   1 0.0000 -1.796629  7.260971 26.801334
263   1 0.0000 -1.796629  7.260971 42.815990
264   1 0.0000 -1.796629  7.260971 58.830646
265   1 0.0000 -1.796629  7.260971 74.845302
266   1 0.0000 -3.593254 10.372816 10.786678
267   1 0.0000 -3.593254 10.372816 26.801334
268   1 0.0000 -3.593254 10.372816 42.815990
269   1 0.0000 -3.593254 10.372816 58.830646
270   1 0.0000 -3.593254 10.372816 74.845302
271   1 0.0000 -5.389879 13.484660 10.786678
272   1 0.0000 -5.389879 13.484660 26.801334
273   1 0.0000 -5.389879 13.484660 42.815990
274   1 0.0000 -5.389879 13.484660 58.830646
275   1 0.0000 -5.389879 13.484660 74.845302
276   1 0.0000  5.389867  1.037282 10.786678
277   1 0.0000  5.389867  1.037282 26.801334
278   1 0.0000  5.389867  1.037282 42.815990
279   1 0.0000  5.389867  1.037282 58.830646
280   1 0.0000  5.389867  1.037282 74.845302
281   1 0.0000  3.593242  4.149126 10.786678
282   1 0.0000  3.593242  4.149126 26.801334
283   1 0.0000  3.593242  4.149126 42.815990
284   1 0.0000  3.593242  4.149126 58.830646
285   1 0.0000  3.593242  4.149126 74.845302
286   1 0.0000  1.796617  7.260971 10.786678
287   1 0.0000  1.796617  7.260971 26.801334
288   1 0.0000  1.796617  7.260971 42.815990
289   1 0.0000  1.796617  7.260971 58.830646
290   1 0.0000  1.796617  7.260971 74.845302
291   1 0.0000 -0.000008 10.372816 10.786678
292   1 0.0000 -0.000008 10.372816 26.801334
293   1 0.0000 -0.000008 10.372816 42.815990
294   1 0.0000 -0.000008 10.372816 58.830646
295   1 0.0000 -0.000008 10.372816 74.845302
296   1 0.0000 -1.796634 13.484660 10.786678
297   1 0.0000 -1.796634 13.484660 26.801334
298   1 0.0000 -1.796634 13.484660 42.815990
299   1 0.0000 -1.796634 13.484660 58.830646
300   1 0.0000 -1.796634 13.484660 74.845302
301   1 0.0000  8.983113  1.037282 10.786678
302   1 0.0000  8.983113  1.037282 26.801334
303   1 0.0000  8.983113  1.037282 42.815990
304   1 0.0000  8.983113  1.037282 58.830646
305   1 0.0000  8.983113  1.037282 74.845302
306   1 0.0000  7.186488  4.149126 10.786678
307   1 0.0000  7.186488  4.149126 26.801334
308   1 0.0000  7.186488  4.149126 42.815990
309   1 0.0000  7.186488  4.149126 58.830646
310   1 0.0000  7.186488  4.149126 74.845302
311   1 0.0000  5.389862  7.260971 10.786678
312   1 0.0000  5.389862  7.260971 26.801334
313   1 0.0000  5.389862  7.260971 42.815990
314   1 0.0000  5.389862  7.260971 58.830646
315   1 0.0000  5.389862  7.260971 74.845302
316   1 0.0000  3.593237 10.372816 10.786678
317   1 0.0000  3.593237 10.372816 26.801334
318   1 0.0000  3.593237 10.372816 42.815990
319   1 0.0000  3.593237 10.372816 58.830646
320   1 0.0000  3.593237 10.372816 74.845302
321   1 0.0000  1.796612 13.484660 10.786678
322   1 0.0000  1.796612 13.484660 26.801334
323   1 0.0000  1.796612 13.484660 42.815990
324   1 0.0000  1.796612 13.484660 58.830646
325   1 0.0000  1.796612 13.484660 74.845302
326   1 0.0000 12.576358  1.037282 10.786678
327   1 0.0000 12.576358  1.037282 26.801334
328   1 0.0000 12.576358  1.037282 42.815990
329   1 0.0000 12.576358  1.037282 58.830646
330   1 0.0000 12.576358  1.037282 74.845302
331   1 0.0000 10.779733  4.149126 10.786678
332   1 0.0000 10.779733  4.149126 26.801334
333   1 0.0000 10.779733  4.149126 42.815990
334   1 0.0000 10.779733  4.149126 58.830646
335   1 0.0000 10.779733  4.149126 74.845302
336   1 0.0000  8.983108  7.260971 10.786678
337   1 0.0000  8.983108  7.260971 26.801334
338   1 0.0000  8.983108  7.260971 42.815990
339   1 0.0000  8.983108  7.260971 58.830646
340   1 0.0000  8.983108  7.260971 74.845302
341   1 0.0000  7.186483 10.372816 10.786678
342   1 0.0000  7.186483 10.372816 26.801334
343   1 0.0000  7.186483 10.372816 42.815990
344   1 0.0000  7.186483 10.372816 58.830646
345   1 0.0000  7.186483 10.372816 74.845302
346   1 0.0000  5.389857 13.484660 10.786678
347   1 0.0000  5.389857 13.484660 26.801334
348   1 0.0000  5.389857 13.484660 42.815990
349   1 0.0000  5.389857 13.484660 58.830646
350   1 0.0000  5.389857 13.484660 74.845302
351   1 0.0000 16.169604  1.037282 10.786678
352   1 0.0000 16.169604  1.037282 26.801334
353   1 0.0000 16.169604  1.037282 42.815990
354   1 0.0000 16.169604  1.037282 58.830646
355   1 0.0000 16.169604  1.037282 74.845302
356   1 0.0000 14.372979  4.149126 10.786678
357   1 0.0000 14.372979  4.149126 26.801334
358   1 0.0000 14.372979  4.149126 42.815990
359   1 0.0000 14.372979  4.149126 58.830646
360   1 0.0000 14.372979  4.149126 74.845302
361   1 0.0000 12.576353  7.260971 10.786678
362   1 0.0000 12.576353  7.260971 26.801334
363   1 0.0000 12.576353  7.260971 42.815990
364   1 0.0000 12.576353  7.260971 58.830646
365   1 0.0000 12.576353  7.260971 74.845302
366   1 0.0000 10.779728 10.372816 10.786678
367   1 0.0000 10.779728 10.372816 26.801334
368   1 0.0000 10.779728 10.372816 42.815990
369   1 0.0000 10.779728 10.372816 58.830646
370   1 0.0000 10.779728 10.372816 74.845302
371   1 0.0000  8.983103 13.484660 10.786678
372   1 0.0000  8.983103 13.484660 26.801334
373   1 0.0000  8.983103 13.484660 42.815990
374   1 0.0000  8.983103 13.484660 58.830646
375   1 0.0000  8.983103 13.484660 74.845302
376   1 0.0000 -0.000002  2.074563  2.779350
377   1 0.0000 -0.000002  2.074563 18.794006
378   1 0.0000 -0.000002  2.074563 34.808662
379   1 0.0000 -0.000002  2.074563 50.823318
380   1 0.0000 -0.000002  2.074563 66.837974
381   1 0.0000 -1.796627  5.186408  2.779350
382   1 0.0000 -1.796627  5.186408 18.794006
383   1 0.0000 -1.796627  5.186408 34.808662
384   1 0.0000 -1.796627  5.186408 50.823318
385   1 0.0000 -1.796627  5.186408 66.837974
386   1 0.0000 -3.593252  8.298253  2.779350
387   1 0.0000 -3.593252  8.298253 18.794006
388   1 0.0000 -3.593252  8.298253 34.808662
389   1 0.0000 -3.593252  8.298253 50.823318
390   1 0.0000 -3.593252  8.298253 66.837974
391   1 0.0000 -5.389878 11.410097  2.779350
392   1 0.0000 -5.389878 11.410097 18.794006
393   1 0.0000 -5.389878 11.410097 34.808662
394   1 0.0000 -5.389878 11.410097 50.823318
395   1 0.0000 -5.389878 11.410097 66.837974
396   1 0.0000 -7.186503 14.521942  2.779350
397   1 0.0000 -7.186503 14.521942 18.794006
398   1 0.0000 -7.186503 14.521942 34.808662
399   1 0.0000 -7.186503 14.521942 50.823318
400   1 0.0000 -7.186503 14.521942 66.837974
401   1 0.0000  3.593244  2.074563  2.779350
402   1 0.0000  3.593244  2.074563 18.794006
403   1 0.0000  3.593244  2.074563 34.808662
404   1 0.0000  3.593244  2.074563 50.823318
405   1 0.0000  3.593244  2.074563 66.837974
406   1 0.0000  1.796619  5.186408  2.779350
407   1 0.0000  1.796619  5.186408 18.794006
408   1 0.0000  1.796619  5.186408 34.808662
409   1 0.0000  1.796619  5.186408 50.823318
410   1 0.0000  1.796619  5.186408 66.837974
411   1 0.0000 -0.000007  8.298253  2.779350
412   1 0.0000 -0.000007  8.298253 18.794006
413   1 0.0000 -0.000007  8.298253 34.808662
414   1 0.0000 -0.000007  8.298253 50.823318
415   1 0.0000 -0.000007  8.298253 66.837974
416   1 0.0000 -1.796632 11.410097  2.779350
417   1 0.0000 -1.796632 11.410097 18.794006
418   1 0.0000 -1.796632 11.410097 34.808662
419   1 0.0000 -1.796632 11.410097 50.823318
420   1 0.0000 -1.796632 11.410097 66.837974
421   1 0.0000 -3.593257 14.521942  2.779350
422   1 0.0000 -3.593257 14.521942 18.794006
423   1 0.0000 -3.593257 14.521942 34.808662
424   1 0.0000 -3.593257 14.521942 50.823318
425   1 0.0000 -3.593257 14.521942 66.837974
426   1 0.0000  7.186489  2.074563  2.779350
427   1 0.0000  7.186489  2.074563 18.794006
428   1 0.0000  7.186489  2.074563 34.808662
429   1 0.0000  7.186489  2.074563 50.823318
430   1 0.0000  7.186489  2.074563 66.837974
431   1 0.0000  5.389864  5.186408  2.779350
432   1 0.0000  5.389864  5.186408 18.794006
433   1 0.0000  5.389864  5.186408 34.808662
434   1 0.0000  5.389864  5.186408 50.823318
435   1 0.0000  5.389864  5.186408 66.837974
436   1 0.0000  3.593239  8.298253  2.779350
437   1 0.0000  3.593239  8.298253 18.794006
438   1 0.0000  3.593239  8.298253 34.808662
439   1 0.0000  3.593239  8.298253 50.823318
440   1 0.0000  3.593239  8.298253 66.837974
441   1 0.0000  1.796613 11.410097  2.779350
442   1 0.0000  1.796613 11.410097 18.794006
443   1 0.0000  1.796613 11.410097 34.808662
444   1 0.0000  1.796613 11.410097 50.823318
445   1 0.0000  1.796613 11.410097 66.837974
446   1 0.0000 -0.000012 14.521942  2.779350
447   1 0.0000 -0.000012 14.521942 18.794006
448   1 0.0000 -0.000012 14.521942 34.808662
449   1 0.0000 -0.000012 14.521942 50.823318
450   1 0.0000 -0.000012 14.521942 66.837974
451   1 0.0000 10.779735  2.074563  2.779350
452   1 0.0000 10.779735  2.074563 18.794006
453   1 0.0000 10.779735  2.074563 34.808662
454   1 0.0000 10.779735  2.074563 50.823318
455   1 0.0000 10.779735  2.074563 66.837974
456   1 0.0000  8.983110  5.186408  2.779350
457   1 0.0000  8.983110  5.186408 18.794006
458   1 0.0000  8.983110  5.186408 34.808662
459   1 0.0000  8.983110  5.186408 50.823318
460   1 0.0000  8.983110  5.186408 66.837974
461   1 0.0000  7.186484  8.298253  2.779350
462   1 0.0000  7.186484  8.298253 18.794006
463   1 0.0000  7.186484  8.298253 34.808662
464   1 0.0000  7.186484  8.298253 50.823318
465   1 0.0000  7.186484  8.298253 66.837974
466   1 0.0000  5.389859 11.410097  2.779350
467   1 0.0000  5.389859 11.410097 18.794006
468   1 0.0000  5.389859 11.410097 34.808662
469   1 0.0000  5.389859 11.410097 50.823318
470   1 0.0000  5.389859 11.410097 66.837974
471   1 0.0000  3.593234 14.521942  2.779350
472   1 0.0000  3.593234 14.521942 18.794006
473   1 0.0000  3.593234 14.521942 34.808662
474   1 0.0000  3.593234 14.521942 50.823318
475   1 0.0000  3.593234 14.521942 66.837974
476   1 0.0000 14.372980  2.074563  2.779350
477   1 0.0000 14.372980  2.074563 18.794006
478   1 0.0000 14.372980  2.074563 34.808662
479   1 0.0000 14.372980  2.074563 50.823318
480   1 0.0000 14.372980  2.074563 66.837974
481   1 0.0000 12.576355  5.186408  2.779350
482   1 0.0000 12.576355  5.186408 18.794006
483   1 0.0000 12.576355  5.186408 34.808662
484   1 0.0000 12.576355  5.186408 50.823318
485   1 0.0000 12.576355  5.186408 66.837974
486   1 0.0000 10.779730  8.298253  2.779350
487   1 0.0000 10.779730  8.298253 18.794006
488   1 0.0000 10.779730  8.298253 34.808662
489   1 0.0000 10.779730  8.298253 50.823318
490   1 0.0000 10.779730  8.298253 66.837974
491   1 0.0000  8.983104 11.410097  2.779350
492   1 0.0000  8.983104 11.410097 18.794006
493   1 0.0000  8.983104 11.410097 34.808662
494   1 0.0000  8.983104 11.410097 50.823318
495   1 0.0000  8.983104 11.410097 66.837974
496   1 0.0000  7.186479 14.521942  2.779350
497   1 0.0000  7.186479 14.521942 18.794006
498   1 0.0000  7.186479 14.521942 34.808662
499   1 0.0000  7.186479 14.521942 50.823318
500   1 0.0000  7.186479 14.521942 66.837974
501   2 0.0000 -0.000002  2.074563 14.303472
502   2 0.0000 -0.000002  2.074563 30.318128
503   2 0.0000 -0.000002  2.074563 46.332784
504   2 0.0000 -0.000002  2.074563 62.347440
505   2 0.0000 -0.000002  2.074563 78.362096
506   2 0.0000 -1.796627  5.186408 14.303472
507   2 0.0000 -1.796627  5.186408 30.318128
508   2 0.0000 -1.796627  5.186408 46.332784
509   2 0.0000 -1.796627  5.186408 62.347440
510   2 0.0000 -1.796627  5.186408 78.362096
511   2 0.0000 -3.593252  8.298253 14.303472
512   2 0.0000 -3.593252  8.298253 30.318128
513   2 0.0000 -3.593252  8.298253 46.332784
514   2 0.0000 -3.593252  8.298253 62.347440
515   2 0.0000 -3.593252  8.298253 78.362096
516   2 0.0000 -5.389878 11.410097 14.303472
517   2 0.0000 -5.389878 11.410097 30.318128
518   2 0.0000 -5.389878 11.410097 46.332784
519   2 0.0000 -5.389878 11.410097 62.347440
520   2 0.0000 -5.389878 11.410097 78.362096
521   2 0.0000 -7.186503 14.521942 14.303472
522   2 0.0000 -7.186503 14.521942 30.318128
523   2 0.0000 -7.186503 14.521942 46.332784
524   2 0.0000 -7.186503 14.521942 62.347440
525   2 0.0000 -7.186503 14.521942 78.362096
526   2 0.0000  3.593244  2.074563 14.303472
527   2 0.0000  3.593244  2.074563 30.318128
528   2 0.0000  3.593244  2.074563 46.332784
529   2 0.0000  3.593244  2.074563 62.347440
530   2 0.0000  3.593244  2.074563 78.362096
531   2 0.0000  1.796619  5.186408 14.303472
532   2 0.0000  1.796619  5.186408 30.318128
533   2 0.0000  1.796619  5.186408 46.332784
534   2 0.0000  1.796619  5.186408 62.347440
535   2 0.0000  1.796619  5.186408 78.362096
536   2 0.0000 -0.000007  8.298253 14.303472
537   2 0.0000 -0.000007  8.298253 30.318128
538   2 0.0000 -0.000007  8.298253 46.332784
539   2 0.0000 -0.000007  8.298253 62.347440
540   2 0.0000 -0.000007  8.298253 78.362096
541   2 0.0000 -1.796632 11.410097 14.303472
542   2 0.0000 -1.796632 11.410097 30.318128
543   2 0.0000 -1.796632 11.410097 46.332784
544   2 0.0000 -1.796632 11.410097 62.347440
545   2 0.0000 -1.796632 11.410097 78.362096
546   2 0.0000 -3.593257 14.521942 14.303472
547   2 0.0000 -3.593257 14.521942 30.318128
548   2 0.0000 -3.593257 14.521942 46.332784
549   2 0.0000 -3.593257 14.521942 62.347440
550   2 0.0000 -3.593257 14.521942 78.362096
551   2 0.0000  7.186489  2.074563 14.303472
552   2 0.0000  7.186489  2.074563 30.318128
553   2 0.0000  7.186489  2.074563 46.332784
554   2 0.0000  7.186489  2.074563 62.347440
555   2 0.0000  7.186489  2.074563 78.362096
556   2 0.0000  5.389864  5.186408 14.303472
557   2 0.0000  5.389864  5.186408 30.318128
558   2 0.0000  5.389864  5.186408 46.332784
559   2 0.0000  5.389864  5.186408 62.347440
560   2 0.0000  5.389864  5.186408 78.362096
561   2 0.0000  3.593239  8.298253 14.303472
562   2 0.0000  3.593239  8.298253 30.318128
563   2 0.0000  3.593239  8.298253 46.332784
564   2 0.0000  3.593239  8.298253 62.347440
565   2 0.0000  3.593239  8.298253 78.362096
566   2 0.0000  1.796613 11.410097 14.303472
567   2 0.0000  1.796613 11.410097 30.318128
568   2 0.0000  1.796613 11.410097 46.332784
569   2 0.0000  1.796613 11.410097 62.347440
570   2 0.0000  1.796613 11.410097 78.362096
571   2 0.0000 -0.000012 14.521942 14.303472
572   2 0.0000 -0.000012 14.521942 30.318128
573   2 0.0000 -0.000012 14.521942 46.332784
574   2 0.0000 -0.000012 14.521942 62.347440
575   2 0.0000 -0.000012 14.521942 78.362096
576   2 0.0000 10.779735  2.074563 14.303472
577   2 0.0000 10.779735  2.074563 30.318128
578   2 0.0000 10.779735  2.074563 46.332784
579   2 0.0000 10.779735  2.074563 62.347440
580   2 0.0000 10.779735  2.074563 78.362096
581   2 0.0000  8.983110  5.186408 14.303472
582   2 0.0000  8.983110  5.186408 30.318128
583   2 0.0000  8.983110  5.186408 46.332784
584   2 0.0000  8.983110  5.186408 62.347440
585   2 0.0000  8.983110  5.186408 78.362096
586   2 0.0000  7.186484  8.298253 14.303472
587   2 0.0000  7.186484  8.298253 30.318128
588   2 0.0000  7.186484  8.298253 46.332784
589   2 0.0000  7.186484  8.298253 62.347440
590   2 0.0000  7.186484  8.298253 78.362096
591   2 0.0000  5.389859 11.410097 14.303472
592   2 0.0000  5.389859 11.410097 30.318128
593   2 0.0000  5.389859 11.410097 46.332784
594   2 0.0000  5.389859 11.410097 62.347440
595   2 0.0000  5.389859 11.410097 78.362096
596   2 0.0000  3.593234 14.521942 14.303472
597   2 0.0000  3.593234 14.521942 30.318128
598   2 0.0000  3.593234 14.521942 46.332784
599   2 0.0000  3.593234 14.521942 62.347440
600   2 0.0000  3.593234 14.521942 78.362096
601   2 0.0000 14.372980  2.074563 14.303472
602   2 0.0000 14.372980  2.074563 30.318128
603   2 0.0000 14.372980  2.074563 46.332784
604   2 0.0000 14.372980  2.074563 62.347440
605   2 0.0000 14.372980  2.074563 78.362096
606   2 0.0000 12.576355  5.186408 14.303472
607   2 0.0000 12.576355  5.186408 30.318128
608   2 0.0000 12.576355  5.186408 46.332784
609   2 0.0000 12.576355  5.186408 62.347440
610   2 0.0000 12.576355  5.186408 78.362096
611   2 0.0000 10.779730  8.298253 14.303472
612   2 0.0000 10.779730  8.298253 30.318128
613   2 0.0000 10.779730  8.298253 46.332784
614   2 0.0000 10.779730  8.298253 62.347440
615   2 0.0000 10.779730  8.298253 78.362096
616   2 0.0000  8.983104 11.410097 14.303472
617   2 0.0000  8.983104 11.410097 30.318128
618   2 0.0000  8.983104 11.410097 46.332784
619   2 0.0000  8.983104 11.410097 62.347440
620   2 0.0000  8.983104 11.410097 78.362096
621   2 0.0000  7.186479 14.521942 14.303472
622   2 0.0000  7.186479 14.521942 30.318128
623   2 0.0000  7.186479 14.521942 46.332784
624   2 0.0000  7.186479 14.521942 62.347440
625   2 0.0000  7.186479 14.521942 78.362096
626   2 0.0000  1.796622  1.037282  6.296144
627   2 0.0000  1.796622  1.037282 22.310800
628   2 0.0000  1.796622  1.037282 38.325456
629   2 0.0000  1.796622  1.037282 54.340112
630   2 0.0000  1.796622  1.037282 70.354768
631   2 0.0000 -0.000003  4.149126  6.296144
632   2 0.0000 -0.000003  4.149126 22.310800
633   2 0.0000 -0.000003  4.149126 38.325456
634   2 0.0000 -0.000003  4.149126 54.340112
635   2 0.0000 -0.000003  4.149126 70.354768
636   2 0.0000 -1.796629  7.260971  6.296144
637   2 0.0000 -1.796629  7.260971 22.310800
638   2 0.0000 -1.796629  7.260971 38.325456
639   2 0.0000 -1.796629  7.260971 54.340112
640   2 0.0000 -1.796629  7.260971 70.354768
641   2 0.0000 -3.593254 10.372816  6.296144
642   2 0.0000 -3.593254 10.372816 22.310800
643   2 0.0000 -3.593254 10.372816 38.325456
644   2 0.0000 -3.593254 10.372816 54.340112
645   2 0.0000 -3.593254 10.372816 70.354768
646   2 0.0000 -5.389879 13.484660  6.296144
647   2 0.0000 -5.389879 13.484660 22.310800
648   2 0.0000 -5.389879 13.484660 38.325456
649   2 0.0000 -5.389879 13.484660 54.340112
650   2 0.0000 -5.389879 13.484660 70.354768
651   2 0.0000  5.389867  1.037282  6.296144
652   2 0.0000  5.389867  1.037282 22.310800
653   2 0.0000  5.389867  1.037282 38.325456
654   2 0.0000  5.389867  1.037282 54.340112
655   2 0.0000  5.389867  1.037282 70.354768
656   2 0.0000  3.593242  4.149126  6.296144
657   2 0.0000  3.593242  4.149126 22.310800
658   2 0.0000  3.593242  4.149126 38.325456
659   2 0.0000  3.593242  4.149126 54.340112
660   2 0.0000  3.593242  4.149126 70.354768
661   2 0.0000  1.796617  7.260971  6.296144
662   2 0.0000  1.796617  7.260971 22.310800
663   2 0.0000  1.796617  7.260971 38.325456
664   2 0.0000  1.796617  7.260971 54.340112
665   2 0.0000  1.796617  7.260971 70.354768
666   2 0.0000 -0.000008 10.372816  6.296144
667   2 0.0000 -0.000008 10.372816 22.310800
668   2 0.0000 -0.000008 10.372816 38.325456
669   2 0.0000 -0.000008 10.372816 54.340112
670   2 0.0000 -0.000008 10.372816 70.354768
671   2 0.0000 -1.796634 13.484660  6.296144
672   2 0.0000 -1.796634 13.484660 22.310800
673   2 0.0000 -1.796634 13.484660 38.325456
674   2 0.0000 -1.796634 13.484660 54.340112
675   2 0.0000 -1.796634 13.484660 70.354768
676   2 0.0000  8.983113  1.037282  6.296144
677   2 0.0000  8.983113  1.037282 22.310800
678   2 0.0000  8.983113  1.037282 38.325456
679   2 0.0000  8.983113  1.037282 54.340112
680   2 0.0000  8.983113  1.037282 70.354768
681   2 0.0000  7.186488  4.149126  6.296144
682   2 0.0000  7.186488  4.149126 22.310800
683   2 0.0000  7.186488  4.149126 38.325456
684   2 0.0000  7.186488  4.149126 54.340112
685   2 0.0000  7.186488  4.149126 70.354768
686   2 0.0000  5.389862  7.260971  6.296144
687   2 0.0000  5.389862  7.260971 22.310800
688   2 0.0000  5.389862  7.260971 38.325456
689   2 0.0000  5.389862  7.260971 54.340112
690   2 0.0000  5.389862  7.260971 70.354768
691   2 0.0000  3.593237 10.372816  6.296144
692   2 0.0000  3.593237 10.372816 22.310800
693   2 0.0000  3.593237 10.372816 38.325456
694   2 0.0000  3.593237 10.372816 54.340112
695   2 0.0000  3.593237 10.372816 70.354768
696   2 0.0000  1.796612 13.484660  6.296144
697   2 0.0000  1.796612 13.484660 22.310800
698   2 0.0000  1.796612 13.484660 38.325456
699   2 0.0000  1.796612 13.484660 54.340112
700   2 0.0000  1.796612 13.484660 70.354768
701   2 0.0000 12.576358  1.037282  6.296144
702   2 0.0000 12.576358  1.037282 22.310800
703   2 0.0000 12.576358  1.037282 38.325456
704   2 0.0000 12.576358  1.037282 54.340112
705   2 0.0000 12.576358  1.037282 70.354768
706   2 0.0000 10.779733  4.149126  6.296144
707   2 0.0000 10.779733  4.149126 22.310800
708   2 0.0000 10.779733  4.149126 38.325456
709   2 0.0000 10.779733  4.149126 54.340112
710   2 0.0000 10.779733  4.149126 70.354768
711   2 0.0000  8.983108  7.260971  6.296144
712   2 0.0000  8.983108  7.260971 22.310800
713   2 0.0000  8.983108  7.260971 38.325456
714   2 0.0000  8.983108  7.260971 54.340112
715   2 0.0000  8.983108  7.260971 70.354768
716   2 0.0000  7.186483 10.372816  6.296144
717   2 0.0000  7.186483 10.372816 22.310800
718   2 0.0000  7.186483 10.372816 38.325456
719   2 0.0000  7.186483 10.372816 54.340112
720   2 0.0000  7.186483 10.372816 70.354768
721   2 0.0000  5.389857 13.484660  6.296144
722   2 0.0000  5.389857 13.484660 22.310800
723   2 0.0000  5.389857 13.484660 38.325456
724   2 0.0000  5.389857 13.484660 54.340112
725   2 0.0000  5.389857 13.484660 70.354768
726   2 0.0000 16.169604  1.037282  6.296144
727   2 0.0000 16.169604  1.037282 22.310800
728   2 0.0000 16.169604  1.037282 38.325456
729   2 0.0000 16.169604  1.037282 54.340112
730   2 0.0000 16.169604  1.037282 70.354768
731   2 0.0000 14.372979  4.149126  6.296144
732   2 0.0000 14.372979  4.149126 22.310800
733   2 0.0000 14.372979  4.149126 38.325456
734   2 0.0000 14.372979  4.149126 54.340112
735   2 0.0000 14.372979  4.149126 70.354768
736   2 0.0000 12.576353  7.260971  6.296144
737   2 0.0000 12.576353  7.260971 22.310800
738   2 0.0000 12.576353  7.260971 38.325456
739   2 0.0000 12.576353  7.260971 54.340112
740   2 0.0000 12.576353  7.260971 70.354768
741   2 0.0000 10.779728 10.372816  6.296144
742   2 0.0000 10.779728 10.372816 22.310800
743   2 0.0000 10.779728 10.372816 38.325456
744   2 0.0000 10.779728 10.372816 54.340112
745   2 0.0000 10.779728 10.372816 70.354768
746   2 0.0000  8.983103 13.484660  6.296144
747   2 0.0000  8.983103 13.484660 22.310800
748   2 0.0000  8.983103 13.484660 38.325456
749   2 0.0000  8.983103 13.484660 54.340112
750   2 0.0000  8.983103 13.484660 70.354768
751   2 0.0000  1.796622  1.037282  1.711184
752   2 0.0000  1.796622  1.037282 17.725840
753   2 0.0000  1.796622  1.037282 33.740496
754   2 0.0000  1.796622  1.037282 49.755152
755   2 0.0000  1.796622  1.037282 65.769808
756   2 0.0000 -0.000003  4.149126  1.711184
757   2 0.0000 -0.000003  4.149126 17.725840
758   2 0.0000 -0.000003  4.149126 33.740496
759   2 0.0000 -0.000003  4.149126 49.755152
760   2 0.0000 -0.000003  4.149126 65.769808
761   2 0.0000 -1.796629  7.260971  1.711184
762   2 0.0000 -1.796629  7.260971 17.725840
763   2 0.0000 -1.796629  7.260971 33.740496
764   2 0.0000 -1.796629  7.260971 49.755152
765   2 0.0000 -1.796629  7.260971 65.769808
766   2 0.0000 -3.593254 10.372816  1.711184
767   2 0.0000 -3.593254 10.372816 17.725840
768   2 0.0000 -3.593254 10.372816 33.740496
769   2 0.0000 -3.593254 10.372816 49.755152
770   2 0.0000 -3.593254 10.372816 65.769808
771   2 0.0000 -5.389879 13.484660  1.711184
772   2 0.0000 -5.389879 13.484660 17.725840
773   2 0.0000 -5.389879 13.484660 33.740496
774   2 0.0000 -5.389879 13.484660 49.755152
775   2 0.0000 -5.389879 13.484660 65.769808
776   2 0.0000  5.389867  1.037282  1.711184
777   2 0.0000  5.389867  1.037282 17.725840
778   2 0.0000  5.389867  1.037282 33.740496
779   2 0.0000  5.389867  1.037282 49.755152
780   2 0.0000  5.389867  1.037282 65.769808
781   2 0.0000  3.593242  4.149126  1.711184
782   2 0.0000  3.593242  4.149126 17.725840
783   2 0.0000  3.593242  4.149126 33.740496
784   2 0.0000  3.593242  4.149126 49.755152
785   2 0.0000  3.593242  4.149126 65.769808
786   2 0.0000  1.796617  7.260971  1.711184
787   2 0.0000  1.796617  7.260971 17.725840
788   2 0.0000  1.796617  7.260971 33.740496
789   2 0.0000  1.796617  7.260971 49.755152
790   2 0.0000  1.796617  7.260971 65.769808
791   2 0.0000 -0.000008 10.372816  1.711184
792   2 0.0000 -0.000008 10.372816 17.725840
793   2 0.0000 -0.000008 10.372816 33.740496
794   2 0.0000 -0.000008 10.372816 49.755152
795   2 0.0000 -0.000008 10.372816 65.769808
796   2 0.0000 -1.796634 13.484660  1.711184
797   2 0.0000 -1.796634 13.484660 17.725840
798   2 0.0000 -1.796634 13.484660 33.740496
799   2 0.0000 -1.796634 13.484660 49.755152
800   2 0.0000 -1.796634 13.484660 65.769808
801   2 0.0000  8.983113  1.037282  1.711184
802   2 0.0000  8.983113  1.037282 17.725840
803   2 0.0000  8.983113  1.037282 33.740496
804   2 0.0000  8.983113  1.037282 49.755152
805   2 0.0000  8.983113  1.037282 65.769808
806   2 0.0000  7.186488  4.149126  1.711184
807   2 0.0000  7.186488  4.149126 17.725840
808   2 0.0000  7.186488  4.149126 33.740496
809   2 0.0000  7.186488  4.149126 49.755152
810   2 0.0000  7.186488  4.149126 65.769808
811   2 0.0000  5.389862  7.260971  1.711184
812   2 0.0000  5.389862  7.260971 17.725840
813   2 0.0000  5.389862  7.260971 33.740496
814   2 0.0000  5.389862  7.260971 49.755152
815   2 0.0000  5.389862  7.260971 65.769808
816   2 0.0000  3.593237 10.372816  1.711184
817   2 0.0000  3.593237 10.372816 17.725840
818   2 0.0000  3.593237 10.372816 33.740496
819   2 0.0000  3.593237 10.372816 49.755152
820   2 0.0000  3.593237 10.372816 65.769808
821   2 0.0000  1.796612 13.484660  1.711184
822   2 0.0000  1.796612 13.484660 17.725840
823   2 0.0000  1.796612 13.484660 33.740496
824   2 0.0000  1.796612 13.484660 49.755152
825   2 0.0000  1.796612 13.484660 65.769808
826   2 0.0000 12.576358  1.037282  1.711184
827   2 0.0000 12.576358  1.037282 17.725840
828   2 0.0000 12.576358  1.037282 33.740496
829   2 0.0000 12.576358  1.037282 49.755152
830   2 0.0000 12.576358  1.037282 65.769808
831   2 0.0000 10.779733  4.149126  1.711184
832   2 0.0000 10.779733  4.149126 17.725840
833   2 0.0000 10.779733  4.149126 33.740496
834   2 0.0000 10.779733  4.149126 49.755152
835   2 0.0000 10.779733  4.149126 65.769808
836   2 0.0000  8.983108  7.260971  1.711184
837   2 0.0000  8.983108  7.260971 17.725840
838   2 0.0000  8.983108  7.260971 33.740496
839   2 0.0000  8.983108  7.260971 49.755152
840   2 0.0000  8.983108  7.260971 65.769808
841   2 0.0000  7.186483 10.372816  1.711184
842   2 0.0000  7.186483 10.372816 17.725840
843   2 0.0000  7.186483 10.372816 33.740496
844   2 0.0000  7.186483 10.372816 49.755152
845   2 0.0000  7.186483 10.372816 65.769808
846   2 0.0000  5.389857 13.484660  1.711184
847   2 0.0000  5.389857 13.484660 17.725840
848   2 0.0000  5.389857 13.484660 33.740496
849   2 0.0000  5.389857 13.484660 49.755152
850   2 0.0000  5.389857 13.484660 65.769808
851   2 0.0000 16.169604  1.037282  1.711184
852   2 0.0000 16.169604  1.037282 17.725840
853   2 0.0000 16.169604  1.037282 33.740496
854   2 0.0000 16.169604  1.037282 49.755152
855   2 0.0000 16.169604  1.037282 65.769808
856   2 0.0000 14.372979  4.149126  1.711184
857   2 0.0000 14.372979  4.149126 17.725840
858   2 0.0000 14.372979  4.149126 33.740496
859   2 0.0000 14.372979  4.149126 49.755152
860   2 0.0000 14.372979  4.149126 65.769808
861   2 0.0000 12.576353  7.260971  1.711184
862   2 0.0000 12.576353  7.260971 17.725840
863   2 0.0000 12.576353  7.260971 33.740496
864   2 0.0000 12.576353  7.260971 49.755152
865   2 0.0000 12.576353  7.260971 65.769808
866   2 0.0000 10.779728 10.372816  1.711184
867   2 0.0000 10.779728 10.372816 17.725840
868   2 0.0000 10.779728 10.372816 33.740496
869   2 0.0000 10.779728 10.372816 49.755152
870   2 0.0000 10.779728 10.372816 65.769808
871   2 0.0000  8.983103 13.484660  1.711184
872   2 0.0000  8.983103 13.484660 17.725840
873   2 0.0000  8.983103 13.484660 33.740496
874   2 0.0000  8.983103 13.484660 49.755152
875   2 0.0000  8.983103 13.484660 65.769808
876   2 0.0000 -0.000002  2.074563  9.718512
877   2 0.0000 -0.000002  2.074563 25.733168
878   2 0.0000 -0.000002  2.074563 41.747824
879   2 0.0000 -0.000002  2.074563 57.762480
880   2 0.0000 -0.000002  2.074563 73.777136
881   2 0.0000 -1.796627  5.186408  9.718512
882   2 0.0000 -1.796627  5.186408 25.733168
883   2 0.0000 -1.796627  5.186408 41.747824
884   2 0.0000 -1.796627  5.186408 57.762480
885   2 0.0000 -1.796627  5.186408 73.777136
886   2 0.0000 -3.593252  8.298253  9.718512
887   2 0.0000 -3.593252  8.298253 25.733168
888   2 0.0000 -3.593252  8.298253 41.747824
889   2 0.0000 -3.593252  8.298253 57.762480
890   2 0.0000 -3.593252  8.298253 73.777136
891   2 0.0000 -5.389878 11.410097  9.718512
892   2 0.0000 -5.389878 11.410097 25.733168
893   2 0.0000 -5.389878 11.410097 41.747824
894   2 0.0000 -5.389878 11.410097 57.762480
895   2 0.0000 -5.389878 11.410097 73.777136
896   2 0.0000 -7.186503 14.521942  9.718512
897   2 0.0000 -7.186503 14.521942 25.733168
898   2 0.0000 -7.186503 14.521942 41.747824
899   2 0.0000 -7.186503 14.521942 57.762480
900   2 0.0000 -7.186503 14.521942 73.777136
901   2 0.0000  3.593244  2.074563  9.718512
902   2 0.0000  3.593244  2.074563 25.733168
903   2 0.0000  3.593244  2.074563 41.747824
904   2 0.0000  3.593244  2.074563 57.762480
905   2 0.0000  3.593244  2.074563 73.777136
906   2 0.0000  1.796619  5.186408  9.718512
907   2 0.0000  1.796619  5.186408 25.733168
908   2 0.0000  1.796619  5.186408 41.747824
909   2 0.0000  1.796619  5.186408 57.762480
910   2 0.0000  1.796619  5.186408 73.777136
911   2 0.0000 -0.000007  8.298253  9.718512
912   2 0.0000 -0.000007  8.298253 25.733168
913   2 0.0000 -0.000007  8.298253 41.747824
914   2 0.0000 -0.000007  8.298253 57.762480
915   2 0.0000 -0.000007  8.298253 73.777136
916   2 0.0000 -1.796632 11.410097  9.718512
917   2 0.0000 -1.796632 11.410097 25.733168
918   2 0.0000 -1.796632 11.410097 41.747824
919   2 0.0000 -1.796632 11.410097 57.762480
920   2 0.0000 -1.796632 11.410097 73.777136
921   2 0.0000 -3.593257 14.521942  9.718512
922   2 0.0000 -3.593257 14.521942 25.733168
923   2 0.0000 -3.593257 14.521942 41.747824
924   2 0.0000 -3.593257 14.521942 57.762480
925   2 0.0000 -3.593257 14.521942 73.777136
926   2 0.0000  7.186489  2.074563  9.718512
927   2 0.0000  7.186489  2.074563 25.733168
928   2 0.0000  7.186489  2.074563 41.747824
929   2 0.0000  7.186489  2.074563 57.762480
930   2 0.0000  7.186489  2.074563 73.777136
931   2 0.0000  5.389864  5.186408  9.718512
932   2 0.0000  5.389864  5.186408 25.733168
933   2 0.0000  5.389864  5.186408 41.747824
934   2 0.0000  5.389864  5.186408 57.762480
935   2 0.0000  5.389864  5.186408 73.777136
936   2 0.0000  3.593239  8.298253  9.718512
937   2 0.0000  3.593239  8.298253 25.733168
938   2 0.0000  3.593239  8.298253 41.747824
939   2 0.0000  3.593239  8.298253 57.762480
940   2 0.0000  3.593239  8.298253 73.777136
941   2 0.0000  1.796613 11.410097  9.718512
942   2 0.0000  1.796613 11.410097 25.733168
943   2 0.0000  1.796613 11.410097 41.747824
944   2 0.0000  1.796613 11.410097 57.762480
945   2 0.0000  1.796613 11.410097 73.777136
946   2 0.0000 -0.000012 14.521942  9.718512
947   2 0.0000 -0.000012 14.521942 25.733168
948   2 0.0000 -0.000012 14.521942 41.747824
949   2 0.0000 -0.000012 14.521942 57.762480
950   2 0.0000 -0.000012 14.521942 73.777136
951   2 0.0000 10.779735  2.074563  9.718512
952   2 0.0000 10.779735  2.074563 25.733168
953   2 0.0000 10.779735  2.074563 41.747824
954   2 0.0000 10.779735  2.074563 57.762480
955   2 0.0000 10.779735  2.074563 73.777136
956   2 0.0000  8.983110  5.186408  9.718512
957   2 0.0000  8.983110  5.186408 25.733168
958   2 0.0000  8.983110  5.186408 41.747824
959   2 0.0000  8.983110  5.186408 57.762480
960   2 0.0000  8.983110  5.186408 73.777136
961   2 0.0000  7.186484  8.298253  9.718512
962   2 0.0000  7.186484  8.298253 25.733168
963   2 0.0000  7.186484  8.298253 41.747824
964   2 0.0000  7.186484  8.298253 57.762480
965   2 0.0000  7.186484  8.298253 73.777136
966   2 0.0000  5.389859 11.410097  9.718512
967   2 0.0000  5.389859 11.410097 25.733168
968   2 0.0000  5.389859 11.410097 41.747824
969   2 0.0000  5.389859 11.410097 57.762480
970   2 0.0000  5.389859 11.410097 73.777136
971   2 0.0000  3.593234 14.521942  9.718512
972   2 0.0000  3.593234 14.521942 25.733168
973   2 0.0000  3.593234 14.521942 41.747824
974   2 0.0000  3.593234 14.521942 57.762480
975   2 0.0000  3.593234 14.521942 73.777136
976   2 0.0000 14.372980  2.074563  9.718512
977   2 0.0000 14.372980  2.074563 25.733168
978   2 0.0000 14.372980  2.074563 41.747824
979   2 0.0000 14.372980  2.074563 57.762480
980   2 0.0000 14.372980  2.074563 73.777136
981   2 0.0000 12.576355  5.186408  9.718512
982   2 0.0000 12.576355  5.186408 25.733168
983   2 0.0000 12.576355  5.186408 41.747824
984   2 0.0000 12.576355  5.186408 57.762480
985   2 0.0000 12.576355  5.186408 73.777136
986   2 0.0000 10.779730  8.298253  9.718512
987   2 0.0000 10.779730  8.298253 25.733168
988   2 0.0000 10.779730  8.298253 41.747824
989   2 0.0000 10.779730  8.298253 57.762480
990   2 0.0000 10.779730  8.298253 73.777136
991   2 0.0000  8.983104 11.410097  9.718512
992   2 0.0000  8.983104 11.410097 25.733168
993   2 0.0000  8.983104 11.410097 41.747824
994   2 0.0000  8.983104 11.410097 57.762480
995   2 0.0000  8.983104 11.410097 73.777136
996   2 0.0000  7.186479 14.521942  9.718512
997   2 0.0000  7.186479 14.521942 25.733168
998   2 0.0000  7.186479 14.521942 41.747824
999   2 0.0000  7.186479 14.521942 57.762480
1000  2 0.0000  7.186479 14.521942 73.777136

