Generated by pymatgen.io.lammps.data.LammpsData

864  atoms

  4  atom types

0.000000 22.691160  xlo xhi
0.000000 22.691160  ylo yhi
0.000000 21.038448  zlo zhi

Masses

1  39.098300
2  30.973762
3   1.007940
4  15.999400

Atoms

1    1 0.0000  0.000000  0.000000  3.506408
2    1 0.0000  0.000000  0.000000 10.519224
3    1 0.0000  0.000000  0.000000 17.532040
4    1 0.0000  0.000000  7.563720  3.506408
5    1 0.0000  0.000000  7.563720 10.519224
6    1 0.0000  0.000000  7.563720 17.532040
7    1 0.0000  0.000000 15.127440  3.506408
8    1 0.0000  0.000000 15.127440 10.519224
9    1 0.0000  0.000000 15.127440 17.532040
10   1 0.0000  7.563720  0.000000  3.506408
11   1 0.0000  7.563720  0.000000 10.519224
12   1 0.0000  7.563720  0.000000 17.532040
13   1 0.0000  7.563720  7.563720  3.506408
14   1 0.0000  7.563720  7.563720 10.519224
15   1 0.0000  7.563720  7.563720 17.532040
16   1 0.0000  7.563720 15.127440  3.506408
17   1 0.0000  7.563720 15.127440 10.519224
18   1 0.0000  7.563720 15.127440 17.532040
19   1 0.0000 15.127440  0.000000  3.506408
20   1 0.0000 15.127440  0.000000 10.519224
21   1 0.0000 15.127440  0.000000 17.532040
22   1 0.0000 15.127440  7.563720  3.506408
23   1 0.0000 15.127440  7.563720 10.519224
24   1 0.0000 15.127440  7.563720 17.532040
25   1 0.0000 15.127440 15.127440  3.506408
26   1 0.0000 15.127440 15.127440 10.519224
27   1 0.0000 15.127440 15.127440 17.532040
28   1 0.0000  3.781860  0.000000  5.259612
29   1 0.0000  3.781860  0.000000 12.272428
30   1 0.0000  3.781860  0.000000 19.285244
31   1 0.0000  3.781860  7.563720  5.259612
32   1 0.0000  3.781860  7.563720 12.272428
33   1 0.0000  3.781860  7.563720 19.285244
34   1 0.0000  3.781860 15.127440  5.259612
35   1 0.0000  3.781860 15.127440 12.272428
36   1 0.0000  3.781860 15.127440 19.285244
37   1 0.0000 11.345580  0.000000  5.259612
38   1 0.0000 11.345580  0.000000 12.272428
39   1 0.0000 11.345580  0.000000 19.285244
40   1 0.0000 11.345580  7.563720  5.259612
41   1 0.0000 11.345580  7.563720 12.272428
42   1 0.0000 11.345580  7.563720 19.285244
43   1 0.0000 11.345580 15.127440  5.259612
44   1 0.0000 11.345580 15.127440 12.272428
45   1 0.0000 11.345580 15.127440 19.285244
46   1 0.0000 18.909300  0.000000  5.259612
47   1 0.0000 18.909300  0.000000 12.272428
48   1 0.0000 18.909300  0.000000 19.285244
49   1 0.0000 18.909300  7.563720  5.259612
50   1 0.0000 18.909300  7.563720 12.272428
51   1 0.0000 18.909300  7.563720 19.285244
52   1 0.0000 18.909300 15.127440  5.259612
53   1 0.0000 18.909300 15.127440 12.272428
54   1 0.0000 18.909300 15.127440 19.285244
55   1 0.0000  3.781860  3.781860  0.000000
56   1 0.0000  3.781860  3.781860  7.012816
57   1 0.0000  3.781860  3.781860 14.025632
58   1 0.0000  3.781860 11.345580  0.000000
59   1 0.0000  3.781860 11.345580  7.012816
60   1 0.0000  3.781860 11.345580 14.025632
61   1 0.0000  3.781860 18.909300  0.000000
62   1 0.0000  3.781860 18.909300  7.012816
63   1 0.0000  3.781860 18.909300 14.025632
64   1 0.0000 11.345580  3.781860  0.000000
65   1 0.0000 11.345580  3.781860  7.012816
66   1 0.0000 11.345580  3.781860 14.025632
67   1 0.0000 11.345580 11.345580 -0.000000
68   1 0.0000 11.345580 11.345580  7.012816
69   1 0.0000 11.345580 11.345580 14.025632
70   1 0.0000 11.345580 18.909300  0.000000
71   1 0.0000 11.345580 18.909300  7.012816
72   1 0.0000 11.345580 18.909300 14.025632
73   1 0.0000 18.909300  3.781860  0.000000
74   1 0.0000 18.909300  3.781860  7.012816
75   1 0.0000 18.909300  3.781860 14.025632
76   1 0.0000 18.909300 11.345580  0.000000
77   1 0.0000 18.909300 11.345580  7.012816
78   1 0.0000 18.909300 11.345580 14.025632
79   1 0.0000 18.909300 18.909300  0.000000
80   1 0.0000 18.909300 18.909300  7.012816
81   1 0.0000 18.909300 18.909300 14.025632
82   1 0.0000  0.000000  3.781860  1.753204
83   1 0.0000  0.000000  3.781860  8.766020
84   1 0.0000  0.000000  3.781860 15.778836
85   1 0.0000  0.000000 11.345580  1.753204
86   1 0.0000  0.000000 11.345580  8.766020
87   1 0.0000  0.000000 11.345580 15.778836
88   1 0.0000  0.000000 18.909300  1.753204
89   1 0.0000  0.000000 18.909300  8.766020
90   1 0.0000  0.000000 18.909300 15.778836
91   1 0.0000  7.563720  3.781860  1.753204
92   1 0.0000  7.563720  3.781860  8.766020
93   1 0.0000  7.563720  3.781860 15.778836
94   1 0.0000  7.563720 11.345580  1.753204
95   1 0.0000  7.563720 11.345580  8.766020
96   1 0.0000  7.563720 11.345580 15.778836
97   1 0.0000  7.563720 18.909300  1.753204
98   1 0.0000  7.563720 18.909300  8.766020
99   1 0.0000  7.563720 18.909300 15.778836
100  1 0.0000 15.127440  3.781860  1.753204
101  1 0.0000 15.127440  3.781860  8.766020
102  1 0.0000 15.127440  3.781860 15.778836
103  1 0.0000 15.127440 11.345580  1.753204
104  1 0.0000 15.127440 11.345580  8.766020
105  1 0.0000 15.127440 11.345580 15.778836
106  1 0.0000 15.127440 18.909300  1.753204
107  1 0.0000 15.127440 18.909300  8.766020
108  1 0.0000 15.127440 18.909300 15.778836
109  2 0.0000  3.781860  3.781860  3.506408
110  2 0.0000  3.781860  3.781860 10.519224
111  2 0.0000  3.781860  3.781860 17.532040
112  2 0.0000  3.781860 11.345580  3.506408
113  2 0.0000  3.781860 11.345580 10.519224
114  2 0.0000  3.781860 11.345580 17.532040
115  2 0.0000  3.781860 18.909300  3.506408
116  2 0.0000  3.781860 18.909300 10.519224
117  2 0.0000  3.781860 18.909300 17.532040
118  2 0.0000 11.345580  3.781860  3.506408
119  2 0.0000 11.345580  3.781860 10.519224
120  2 0.0000 11.345580  3.781860 17.532040
121  2 0.0000 11.345580 11.345580  3.506408
122  2 0.0000 11.345580 11.345580 10.519224
123  2 0.0000 11.345580 11.345580 17.532040
124  2 0.0000 11.345580 18.909300  3.506408
125  2 0.0000 11.345580 18.909300 10.519224
126  2 0.0000 11.345580 18.909300 17.532040
127  2 0.0000 18.909300  3.781860  3.506408
128  2 0.0000 18.909300  3.781860 10.519224
129  2 0.0000 18.909300  3.781860 17.532040
130  2 0.0000 18.909300 11.345580  3.506408
131  2 0.0000 18.909300 11.345580 10.519224
132  2 0.0000 18.909300 11.345580 17.532040
133  2 0.0000 18.909300 18.909300  3.506408
134  2 0.0000 18.909300 18.909300 10.519224
135  2 0.0000 18.909300 18.909300 17.532040
136  2 0.0000  3.781860  0.000000  1.753204
137  2 0.0000  3.781860  0.000000  8.766020
138  2 0.0000  3.781860  0.000000 15.778836
139  2 0.0000  3.781860  7.563720  1.753204
140  2 0.0000  3.781860  7.563720  8.766020
141  2 0.0000  3.781860  7.563720 15.778836
142  2 0.0000  3.781860 15.127440  1.753204
143  2 0.0000  3.781860 15.127440  8.766020
144  2 0.0000  3.781860 15.127440 15.778836
145  2 0.0000 11.345580  0.000000  1.753204
146  2 0.0000 11.345580  0.000000  8.766020
147  2 0.0000 11.345580  0.000000 15.778836
148  2 0.0000 11.345580  7.563720  1.753204
149  2 0.0000 11.345580  7.563720  8.766020
150  2 0.0000 11.345580  7.563720 15.778836
151  2 0.0000 11.345580 15.127440  1.753204
152  2 0.0000 11.345580 15.127440  8.766020
153  2 0.0000 11.345580 15.127440 15.778836
154  2 0.0000 18.909300  0.000000  1.753204
155  2 0.0000 18.909300  0.000000  8.766020
156  2 0.0000 18.909300  0.000000 15.778836
157  2 0.0000 18.909300  7.563720  1.753204
158  2 0.0000 18.909300  7.563720  8.766020
159  2 0.0000 18.909300  7.563720 15.778836
160  2 0.0000 18.909300 15.127440  1.753204
161  2 0.0000 18.909300 15.127440  8.766020
162  2 0.0000 18.909300 15.127440 15.778836
163  2 0.0000  0.000000  0.000000  0.000000
164  2 0.0000  0.000000  0.000000  7.012816
165  2 0.0000  0.000000  0.000000 14.025632
166  2 0.0000  0.000000  7.563720  0.000000
167  2 0.0000  0.000000  7.563720  7.012816
168  2 0.0000  0.000000  7.563720 14.025632
169  2 0.0000  0.000000 15.127440  0.000000
170  2 0.0000  0.000000 15.127440  7.012816
171  2 0.0000  0.000000 15.127440 14.025632
172  2 0.0000  7.563720  0.000000  0.000000
173  2 0.0000  7.563720  0.000000  7.012816
174  2 0.0000  7.563720  0.000000 14.025632
175  2 0.0000  7.563720  7.563720  0.000000
176  2 0.0000  7.563720  7.563720  7.012816
177  2 0.0000  7.563720  7.563720 14.025632
178  2 0.0000  7.563720 15.127440  0.000000
179  2 0.0000  7.563720 15.127440  7.012816
180  2 0.0000  7.563720 15.127440 14.025632
181  2 0.0000 15.127440  0.000000  0.000000
182  2 0.0000 15.127440  0.000000  7.012816
183  2 0.0000 15.127440  0.000000 14.025632
184  2 0.0000 15.127440  7.563720  0.000000
185  2 0.0000 15.127440  7.563720  7.012816
186  2 0.0000 15.127440  7.563720 14.025632
187  2 0.0000 15.127440 15.127440  0.000000
188  2 0.0000 15.127440 15.127440  7.012816
189  2 0.0000 15.127440 15.127440 14.025632
190  2 0.0000  0.000000  3.781860  5.259612
191  2 0.0000  0.000000  3.781860 12.272428
192  2 0.0000  0.000000  3.781860 19.285244
193  2 0.0000  0.000000 11.345580  5.259612
194  2 0.0000  0.000000 11.345580 12.272428
195  2 0.0000  0.000000 11.345580 19.285244
196  2 0.0000  0.000000 18.909300  5.259612
197  2 0.0000  0.000000 18.909300 12.272428
198  2 0.0000  0.000000 18.909300 19.285244
199  2 0.0000  7.563720  3.781860  5.259612
200  2 0.0000  7.563720  3.781860 12.272428
201  2 0.0000  7.563720  3.781860 19.285244
202  2 0.0000  7.563720 11.345580  5.259612
203  2 0.0000  7.563720 11.345580 12.272428
204  2 0.0000  7.563720 11.345580 19.285244
205  2 0.0000  7.563720 18.909300  5.259612
206  2 0.0000  7.563720 18.909300 12.272428
207  2 0.0000  7.563720 18.909300 19.285244
208  2 0.0000 15.127440  3.781860  5.259612
209  2 0.0000 15.127440  3.781860 12.272428
210  2 0.0000 15.127440  3.781860 19.285244
211  2 0.0000 15.127440 11.345580  5.259612
212  2 0.0000 15.127440 11.345580 12.272428
213  2 0.0000 15.127440 11.345580 19.285244
214  2 0.0000 15.127440 18.909300  5.259612
215  2 0.0000 15.127440 18.909300 12.272428
216  2 0.0000 15.127440 18.909300 19.285244
217  3 0.0000  4.844782  5.672790  2.629806
218  3 0.0000  4.844782  5.672790  9.642622
219  3 0.0000  4.844782  5.672790 16.655438
220  3 0.0000  4.844782 13.236510  2.629806
221  3 0.0000  4.844782 13.236510  9.642622
222  3 0.0000  4.844782 13.236510 16.655438
223  3 0.0000  4.844782 20.800230  2.629806
224  3 0.0000  4.844782 20.800230  9.642622
225  3 0.0000  4.844782 20.800230 16.655438
226  3 0.0000 12.408502  5.672790  2.629806
227  3 0.0000 12.408502  5.672790  9.642622
228  3 0.0000 12.408502  5.672790 16.655438
229  3 0.0000 12.408502 13.236510  2.629806
230  3 0.0000 12.408502 13.236510  9.642622
231  3 0.0000 12.408502 13.236510 16.655438
232  3 0.0000 12.408502 20.800230  2.629806
233  3 0.0000 12.408502 20.800230  9.642622
234  3 0.0000 12.408502 20.800230 16.655438
235  3 0.0000 19.972222  5.672790  2.629806
236  3 0.0000 19.972222  5.672790  9.642622
237  3 0.0000 19.972222  5.672790 16.655438
238  3 0.0000 19.972222 13.236510  2.629806
239  3 0.0000 19.972222 13.236510  9.642622
240  3 0.0000 19.972222 13.236510 16.655438
241  3 0.0000 19.972222 20.800230  2.629806
242  3 0.0000 19.972222 20.800230  9.642622
243  3 0.0000 19.972222 20.800230 16.655438
244  3 0.0000  6.500798  5.672790  6.136214
245  3 0.0000  6.500798  5.672790 13.149030
246  3 0.0000  6.500798  5.672790 20.161846
247  3 0.0000  6.500798 13.236510  6.136214
248  3 0.0000  6.500798 13.236510 13.149030
249  3 0.0000  6.500798 13.236510 20.161846
250  3 0.0000  6.500798 20.800230  6.136214
251  3 0.0000  6.500798 20.800230 13.149030
252  3 0.0000  6.500798 20.800230 20.161846
253  3 0.0000 14.064518  5.672790  6.136214
254  3 0.0000 14.064518  5.672790 13.149030
255  3 0.0000 14.064518  5.672790 20.161846
256  3 0.0000 14.064518 13.236510  6.136214
257  3 0.0000 14.064518 13.236510 13.149030
258  3 0.0000 14.064518 13.236510 20.161846
259  3 0.0000 14.064518 20.800230  6.136214
260  3 0.0000 14.064518 20.800230 13.149030
261  3 0.0000 14.064518 20.800230 20.161846
262  3 0.0000 21.628238  5.672790  6.136214
263  3 0.0000 21.628238  5.672790 13.149030
264  3 0.0000 21.628238  5.672790 20.161846
265  3 0.0000 21.628238 13.236510  6.136214
266  3 0.0000 21.628238 13.236510 13.149030
267  3 0.0000 21.628238 13.236510 20.161846
268  3 0.0000 21.628238 20.800230  6.136214
269  3 0.0000 21.628238 20.800230 13.149030
270  3 0.0000 21.628238 20.800230 20.161846
271  3 0.0000  5.672790  2.718938  4.383010
272  3 0.0000  5.672790  2.718938 11.395826
273  3 0.0000  5.672790  2.718938 18.408642
274  3 0.0000  5.672790 10.282658  4.383010
275  3 0.0000  5.672790 10.282658 11.395826
276  3 0.0000  5.672790 10.282658 18.408642
277  3 0.0000  5.672790 17.846378  4.383010
278  3 0.0000  5.672790 17.846378 11.395826
279  3 0.0000  5.672790 17.846378 18.408642
280  3 0.0000 13.236510  2.718938  4.383010
281  3 0.0000 13.236510  2.718938 11.395826
282  3 0.0000 13.236510  2.718938 18.408642
283  3 0.0000 13.236510 10.282658  4.383010
284  3 0.0000 13.236510 10.282658 11.395826
285  3 0.0000 13.236510 10.282658 18.408642
286  3 0.0000 13.236510 17.846378  4.383010
287  3 0.0000 13.236510 17.846378 11.395826
288  3 0.0000 13.236510 17.846378 18.408642
289  3 0.0000 20.800230  2.718938  4.383010
290  3 0.0000 20.800230  2.718938 11.395826
291  3 0.0000 20.800230  2.718938 18.408642
292  3 0.0000 20.800230 10.282658  4.383010
293  3 0.0000 20.800230 10.282658 11.395826
294  3 0.0000 20.800230 10.282658 18.408642
295  3 0.0000 20.800230 17.846378  4.383010
296  3 0.0000 20.800230 17.846378 11.395826
297  3 0.0000 20.800230 17.846378 18.408642
298  3 0.0000  5.672790  1.062922  0.876602
299  3 0.0000  5.672790  1.062922  7.889418
300  3 0.0000  5.672790  1.062922 14.902234
301  3 0.0000  5.672790  8.626642  0.876602
302  3 0.0000  5.672790  8.626642  7.889418
303  3 0.0000  5.672790  8.626642 14.902234
304  3 0.0000  5.672790 16.190362  0.876602
305  3 0.0000  5.672790 16.190362  7.889418
306  3 0.0000  5.672790 16.190362 14.902234
307  3 0.0000 13.236510  1.062922  0.876602
308  3 0.0000 13.236510  1.062922  7.889418
309  3 0.0000 13.236510  1.062922 14.902234
310  3 0.0000 13.236510  8.626642  0.876602
311  3 0.0000 13.236510  8.626642  7.889418
312  3 0.0000 13.236510  8.626642 14.902234
313  3 0.0000 13.236510 16.190362  0.876602
314  3 0.0000 13.236510 16.190362  7.889418
315  3 0.0000 13.236510 16.190362 14.902234
316  3 0.0000 20.800230  1.062922  0.876602
317  3 0.0000 20.800230  1.062922  7.889418
318  3 0.0000 20.800230  1.062922 14.902234
319  3 0.0000 20.800230  8.626642  0.876602
320  3 0.0000 20.800230  8.626642  7.889418
321  3 0.0000 20.800230  8.626642 14.902234
322  3 0.0000 20.800230 16.190362  0.876602
323  3 0.0000 20.800230 16.190362  7.889418
324  3 0.0000 20.800230 16.190362 14.902234
325  3 0.0000  1.062922  1.890930  6.136214
326  3 0.0000  1.062922  1.890930 13.149030
327  3 0.0000  1.062922  1.890930 20.161846
328  3 0.0000  1.062922  9.454650  6.136214
329  3 0.0000  1.062922  9.454650 13.149030
330  3 0.0000  1.062922  9.454650 20.161846
331  3 0.0000  1.062922 17.018370  6.136214
332  3 0.0000  1.062922 17.018370 13.149030
333  3 0.0000  1.062922 17.018370 20.161846
334  3 0.0000  8.626642  1.890930  6.136214
335  3 0.0000  8.626642  1.890930 13.149030
336  3 0.0000  8.626642  1.890930 20.161846
337  3 0.0000  8.626642  9.454650  6.136214
338  3 0.0000  8.626642  9.454650 13.149030
339  3 0.0000  8.626642  9.454650 20.161846
340  3 0.0000  8.626642 17.018370  6.136214
341  3 0.0000  8.626642 17.018370 13.149030
342  3 0.0000  8.626642 17.018370 20.161846
343  3 0.0000 16.190362  1.890930  6.136214
344  3 0.0000 16.190362  1.890930 13.149030
345  3 0.0000 16.190362  1.890930 20.161846
346  3 0.0000 16.190362  9.454650  6.136214
347  3 0.0000 16.190362  9.454650 13.149030
348  3 0.0000 16.190362  9.454650 20.161846
349  3 0.0000 16.190362 17.018370  6.136214
350  3 0.0000 16.190362 17.018370 13.149030
351  3 0.0000 16.190362 17.018370 20.161846
352  3 0.0000  2.718938  1.890930  2.629806
353  3 0.0000  2.718938  1.890930  9.642622
354  3 0.0000  2.718938  1.890930 16.655438
355  3 0.0000  2.718938  9.454650  2.629806
356  3 0.0000  2.718938  9.454650  9.642622
357  3 0.0000  2.718938  9.454650 16.655438
358  3 0.0000  2.718938 17.018370  2.629806
359  3 0.0000  2.718938 17.018370  9.642622
360  3 0.0000  2.718938 17.018370 16.655438
361  3 0.0000 10.282658  1.890930  2.629806
362  3 0.0000 10.282658  1.890930  9.642622
363  3 0.0000 10.282658  1.890930 16.655438
364  3 0.0000 10.282658  9.454650  2.629806
365  3 0.0000 10.282658  9.454650  9.642622
366  3 0.0000 10.282658  9.454650 16.655438
367  3 0.0000 10.282658 17.018370  2.629806
368  3 0.0000 10.282658 17.018370  9.642622
369  3 0.0000 10.282658 17.018370 16.655438
370  3 0.0000 17.846378  1.890930  2.629806
371  3 0.0000 17.846378  1.890930  9.642622
372  3 0.0000 17.846378  1.890930 16.655438
373  3 0.0000 17.846378  9.454650  2.629806
374  3 0.0000 17.846378  9.454650  9.642622
375  3 0.0000 17.846378  9.454650 16.655438
376  3 0.0000 17.846378 17.018370  2.629806
377  3 0.0000 17.846378 17.018370  9.642622
378  3 0.0000 17.846378 17.018370 16.655438
379  3 0.0000  1.890930  6.500798  0.876602
380  3 0.0000  1.890930  6.500798  7.889418
381  3 0.0000  1.890930  6.500798 14.902234
382  3 0.0000  1.890930 14.064518  0.876602
383  3 0.0000  1.890930 14.064518  7.889418
384  3 0.0000  1.890930 14.064518 14.902234
385  3 0.0000  1.890930 21.628238  0.876602
386  3 0.0000  1.890930 21.628238  7.889418
387  3 0.0000  1.890930 21.628238 14.902234
388  3 0.0000  9.454650  6.500798  0.876602
389  3 0.0000  9.454650  6.500798  7.889418
390  3 0.0000  9.454650  6.500798 14.902234
391  3 0.0000  9.454650 14.064518  0.876602
392  3 0.0000  9.454650 14.064518  7.889418
393  3 0.0000  9.454650 14.064518 14.902234
394  3 0.0000  9.454650 21.628238  0.876602
395  3 0.0000  9.454650 21.628238  7.889418
396  3 0.0000  9.454650 21.628238 14.902234
397  3 0.0000 17.018370  6.500798  0.876602
398  3 0.0000 17.018370  6.500798  7.889418
399  3 0.0000 17.018370  6.500798 14.902234
400  3 0.0000 17.018370 14.064518  0.876602
401  3 0.0000 17.018370 14.064518  7.889418
402  3 0.0000 17.018370 14.064518 14.902234
403  3 0.0000 17.018370 21.628238  0.876602
404  3 0.0000 17.018370 21.628238  7.889418
405  3 0.0000 17.018370 21.628238 14.902234
406  3 0.0000  1.890930  4.844782  4.383010
407  3 0.0000  1.890930  4.844782 11.395826
408  3 0.0000  1.890930  4.844782 18.408642
409  3 0.0000  1.890930 12.408502  4.383010
410  3 0.0000  1.890930 12.408502 11.395826
411  3 0.0000  1.890930 12.408502 18.408642
412  3 0.0000  1.890930 19.972222  4.383010
413  3 0.0000  1.890930 19.972222 11.395826
414  3 0.0000  1.890930 19.972222 18.408642
415  3 0.0000  9.454650  4.844782  4.383010
416  3 0.0000  9.454650  4.844782 11.395826
417  3 0.0000  9.454650  4.844782 18.408642
418  3 0.0000  9.454650 12.408502  4.383010
419  3 0.0000  9.454650 12.408502 11.395826
420  3 0.0000  9.454650 12.408502 18.408642
421  3 0.0000  9.454650 19.972222  4.383010
422  3 0.0000  9.454650 19.972222 11.395826
423  3 0.0000  9.454650 19.972222 18.408642
424  3 0.0000 17.018370  4.844782  4.383010
425  3 0.0000 17.018370  4.844782 11.395826
426  3 0.0000 17.018370  4.844782 18.408642
427  3 0.0000 17.018370 12.408502  4.383010
428  3 0.0000 17.018370 12.408502 11.395826
429  3 0.0000 17.018370 12.408502 18.408642
430  3 0.0000 17.018370 19.972222  4.383010
431  3 0.0000 17.018370 19.972222 11.395826
432  3 0.0000 17.018370 19.972222 18.408642
433  4 0.0000  4.862942  4.463669  2.616587
434  4 0.0000  4.862942  4.463669  9.629403
435  4 0.0000  4.862942  4.463669 16.642219
436  4 0.0000  4.862942 12.027389  2.616587
437  4 0.0000  4.862942 12.027389  9.629403
438  4 0.0000  4.862942 12.027389 16.642219
439  4 0.0000  4.862942 19.591109  2.616587
440  4 0.0000  4.862942 19.591109  9.629403
441  4 0.0000  4.862942 19.591109 16.642219
442  4 0.0000 12.426662  4.463669  2.616587
443  4 0.0000 12.426662  4.463669  9.629403
444  4 0.0000 12.426662  4.463669 16.642219
445  4 0.0000 12.426662 12.027389  2.616587
446  4 0.0000 12.426662 12.027389  9.629403
447  4 0.0000 12.426662 12.027389 16.642219
448  4 0.0000 12.426662 19.591109  2.616587
449  4 0.0000 12.426662 19.591109  9.629403
450  4 0.0000 12.426662 19.591109 16.642219
451  4 0.0000 19.990382  4.463669  2.616587
452  4 0.0000 19.990382  4.463669  9.629403
453  4 0.0000 19.990382  4.463669 16.642219
454  4 0.0000 19.990382 12.027389  2.616587
455  4 0.0000 19.990382 12.027389  9.629403
456  4 0.0000 19.990382 12.027389 16.642219
457  4 0.0000 19.990382 19.591109  2.616587
458  4 0.0000 19.990382 19.591109  9.629403
459  4 0.0000 19.990382 19.591109 16.642219
460  4 0.0000  4.862942  6.881911  2.643025
461  4 0.0000  4.862942  6.881911  9.655841
462  4 0.0000  4.862942  6.881911 16.668657
463  4 0.0000  4.862942 14.445631  2.643025
464  4 0.0000  4.862942 14.445631  9.655841
465  4 0.0000  4.862942 14.445631 16.668657
466  4 0.0000  4.862942 22.009351  2.643025
467  4 0.0000  4.862942 22.009351  9.655841
468  4 0.0000  4.862942 22.009351 16.668657
469  4 0.0000 12.426662  6.881911  2.643025
470  4 0.0000 12.426662  6.881911  9.655841
471  4 0.0000 12.426662  6.881911 16.668657
472  4 0.0000 12.426662 14.445631  2.643025
473  4 0.0000 12.426662 14.445631  9.655841
474  4 0.0000 12.426662 14.445631 16.668657
475  4 0.0000 12.426662 22.009351  2.643025
476  4 0.0000 12.426662 22.009351  9.655841
477  4 0.0000 12.426662 22.009351 16.668657
478  4 0.0000 19.990382  6.881911  2.643025
479  4 0.0000 19.990382  6.881911  9.655841
480  4 0.0000 19.990382  6.881911 16.668657
481  4 0.0000 19.990382 14.445631  2.643025
482  4 0.0000 19.990382 14.445631  9.655841
483  4 0.0000 19.990382 14.445631 16.668657
484  4 0.0000 19.990382 22.009351  2.643025
485  4 0.0000 19.990382 22.009351  9.655841
486  4 0.0000 19.990382 22.009351 16.668657
487  4 0.0000  6.482638  6.881911  6.122995
488  4 0.0000  6.482638  6.881911 13.135811
489  4 0.0000  6.482638  6.881911 20.148627
490  4 0.0000  6.482638 14.445631  6.122995
491  4 0.0000  6.482638 14.445631 13.135811
492  4 0.0000  6.482638 14.445631 20.148627
493  4 0.0000  6.482638 22.009351  6.122995
494  4 0.0000  6.482638 22.009351 13.135811
495  4 0.0000  6.482638 22.009351 20.148627
496  4 0.0000 14.046358  6.881911  6.122995
497  4 0.0000 14.046358  6.881911 13.135811
498  4 0.0000 14.046358  6.881911 20.148627
499  4 0.0000 14.046358 14.445631  6.122995
500  4 0.0000 14.046358 14.445631 13.135811
501  4 0.0000 14.046358 14.445631 20.148627
502  4 0.0000 14.046358 22.009351  6.122995
503  4 0.0000 14.046358 22.009351 13.135811
504  4 0.0000 14.046358 22.009351 20.148627
505  4 0.0000 21.610078  6.881911  6.122995
506  4 0.0000 21.610078  6.881911 13.135811
507  4 0.0000 21.610078  6.881911 20.148627
508  4 0.0000 21.610078 14.445631  6.122995
509  4 0.0000 21.610078 14.445631 13.135811
510  4 0.0000 21.610078 14.445631 20.148627
511  4 0.0000 21.610078 22.009351  6.122995
512  4 0.0000 21.610078 22.009351 13.135811
513  4 0.0000 21.610078 22.009351 20.148627
514  4 0.0000  2.700778  0.681809  2.643025
515  4 0.0000  2.700778  0.681809  9.655841
516  4 0.0000  2.700778  0.681809 16.668657
517  4 0.0000  2.700778  8.245529  2.643025
518  4 0.0000  2.700778  8.245529  9.655841
519  4 0.0000  2.700778  8.245529 16.668657
520  4 0.0000  2.700778 15.809249  2.643025
521  4 0.0000  2.700778 15.809249  9.655841
522  4 0.0000  2.700778 15.809249 16.668657
523  4 0.0000 10.264498  0.681809  2.643025
524  4 0.0000 10.264498  0.681809  9.655841
525  4 0.0000 10.264498  0.681809 16.668657
526  4 0.0000 10.264498  8.245529  2.643025
527  4 0.0000 10.264498  8.245529  9.655841
528  4 0.0000 10.264498  8.245529 16.668657
529  4 0.0000 10.264498 15.809249  2.643025
530  4 0.0000 10.264498 15.809249  9.655841
531  4 0.0000 10.264498 15.809249 16.668657
532  4 0.0000 17.828218  0.681809  2.643025
533  4 0.0000 17.828218  0.681809  9.655841
534  4 0.0000 17.828218  0.681809 16.668657
535  4 0.0000 17.828218  8.245529  2.643025
536  4 0.0000 17.828218  8.245529  9.655841
537  4 0.0000 17.828218  8.245529 16.668657
538  4 0.0000 17.828218 15.809249  2.643025
539  4 0.0000 17.828218 15.809249  9.655841
540  4 0.0000 17.828218 15.809249 16.668657
541  4 0.0000  4.463669  2.700778  4.396229
542  4 0.0000  4.463669  2.700778 11.409045
543  4 0.0000  4.463669  2.700778 18.421861
544  4 0.0000  4.463669 10.264498  4.396229
545  4 0.0000  4.463669 10.264498 11.409045
546  4 0.0000  4.463669 10.264498 18.421861
547  4 0.0000  4.463669 17.828218  4.396229
548  4 0.0000  4.463669 17.828218 11.409045
549  4 0.0000  4.463669 17.828218 18.421861
550  4 0.0000 12.027389  2.700778  4.396229
551  4 0.0000 12.027389  2.700778 11.409045
552  4 0.0000 12.027389  2.700778 18.421861
553  4 0.0000 12.027389 10.264498  4.396229
554  4 0.0000 12.027389 10.264498 11.409045
555  4 0.0000 12.027389 10.264498 18.421861
556  4 0.0000 12.027389 17.828218  4.396229
557  4 0.0000 12.027389 17.828218 11.409045
558  4 0.0000 12.027389 17.828218 18.421861
559  4 0.0000 19.591109  2.700778  4.396229
560  4 0.0000 19.591109  2.700778 11.409045
561  4 0.0000 19.591109  2.700778 18.421861
562  4 0.0000 19.591109 10.264498  4.396229
563  4 0.0000 19.591109 10.264498 11.409045
564  4 0.0000 19.591109 10.264498 18.421861
565  4 0.0000 19.591109 17.828218  4.396229
566  4 0.0000 19.591109 17.828218 11.409045
567  4 0.0000 19.591109 17.828218 18.421861
568  4 0.0000  0.681809  4.862942  4.369791
569  4 0.0000  0.681809  4.862942 11.382607
570  4 0.0000  0.681809  4.862942 18.395423
571  4 0.0000  0.681809 12.426662  4.369791
572  4 0.0000  0.681809 12.426662 11.382607
573  4 0.0000  0.681809 12.426662 18.395423
574  4 0.0000  0.681809 19.990382  4.369791
575  4 0.0000  0.681809 19.990382 11.382607
576  4 0.0000  0.681809 19.990382 18.395423
577  4 0.0000  8.245529  4.862942  4.369791
578  4 0.0000  8.245529  4.862942 11.382607
579  4 0.0000  8.245529  4.862942 18.395423
580  4 0.0000  8.245529 12.426662  4.369791
581  4 0.0000  8.245529 12.426662 11.382607
582  4 0.0000  8.245529 12.426662 18.395423
583  4 0.0000  8.245529 19.990382  4.369791
584  4 0.0000  8.245529 19.990382 11.382607
585  4 0.0000  8.245529 19.990382 18.395423
586  4 0.0000 15.809249  4.862942  4.369791
587  4 0.0000 15.809249  4.862942 11.382607
588  4 0.0000 15.809249  4.862942 18.395423
589  4 0.0000 15.809249 12.426662  4.369791
590  4 0.0000 15.809249 12.426662 11.382607
591  4 0.0000 15.809249 12.426662 18.395423
592  4 0.0000 15.809249 19.990382  4.369791
593  4 0.0000 15.809249 19.990382 11.382607
594  4 0.0000 15.809249 19.990382 18.395423
595  4 0.0000  6.881911  1.081082  0.889821
596  4 0.0000  6.881911  1.081082  7.902637
597  4 0.0000  6.881911  1.081082 14.915453
598  4 0.0000  6.881911  8.644802  0.889821
599  4 0.0000  6.881911  8.644802  7.902637
600  4 0.0000  6.881911  8.644802 14.915453
601  4 0.0000  6.881911 16.208522  0.889821
602  4 0.0000  6.881911 16.208522  7.902637
603  4 0.0000  6.881911 16.208522 14.915453
604  4 0.0000 14.445631  1.081082  0.889821
605  4 0.0000 14.445631  1.081082  7.902637
606  4 0.0000 14.445631  1.081082 14.915453
607  4 0.0000 14.445631  8.644802  0.889821
608  4 0.0000 14.445631  8.644802  7.902637
609  4 0.0000 14.445631  8.644802 14.915453
610  4 0.0000 14.445631 16.208522  0.889821
611  4 0.0000 14.445631 16.208522  7.902637
612  4 0.0000 14.445631 16.208522 14.915453
613  4 0.0000 22.009351  1.081082  0.889821
614  4 0.0000 22.009351  1.081082  7.902637
615  4 0.0000 22.009351  1.081082 14.915453
616  4 0.0000 22.009351  8.644802  0.889821
617  4 0.0000 22.009351  8.644802  7.902637
618  4 0.0000 22.009351  8.644802 14.915453
619  4 0.0000 22.009351 16.208522  0.889821
620  4 0.0000 22.009351 16.208522  7.902637
621  4 0.0000 22.009351 16.208522 14.915453
622  4 0.0000  6.881911  2.700778  4.369791
623  4 0.0000  6.881911  2.700778 11.382607
624  4 0.0000  6.881911  2.700778 18.395423
625  4 0.0000  6.881911 10.264498  4.369791
626  4 0.0000  6.881911 10.264498 11.382607
627  4 0.0000  6.881911 10.264498 18.395423
628  4 0.0000  6.881911 17.828218  4.369791
629  4 0.0000  6.881911 17.828218 11.382607
630  4 0.0000  6.881911 17.828218 18.395423
631  4 0.0000 14.445631  2.700778  4.369791
632  4 0.0000 14.445631  2.700778 11.382607
633  4 0.0000 14.445631  2.700778 18.395423
634  4 0.0000 14.445631 10.264498  4.369791
635  4 0.0000 14.445631 10.264498 11.382607
636  4 0.0000 14.445631 10.264498 18.395423
637  4 0.0000 14.445631 17.828218  4.369791
638  4 0.0000 14.445631 17.828218 11.382607
639  4 0.0000 14.445631 17.828218 18.395423
640  4 0.0000 22.009351  2.700778  4.369791
641  4 0.0000 22.009351  2.700778 11.382607
642  4 0.0000 22.009351  2.700778 18.395423
643  4 0.0000 22.009351 10.264498  4.369791
644  4 0.0000 22.009351 10.264498 11.382607
645  4 0.0000 22.009351 10.264498 18.395423
646  4 0.0000 22.009351 17.828218  4.369791
647  4 0.0000 22.009351 17.828218 11.382607
648  4 0.0000 22.009351 17.828218 18.395423
649  4 0.0000  1.081082  0.681809  6.122995
650  4 0.0000  1.081082  0.681809 13.135811
651  4 0.0000  1.081082  0.681809 20.148627
652  4 0.0000  1.081082  8.245529  6.122995
653  4 0.0000  1.081082  8.245529 13.135811
654  4 0.0000  1.081082  8.245529 20.148627
655  4 0.0000  1.081082 15.809249  6.122995
656  4 0.0000  1.081082 15.809249 13.135811
657  4 0.0000  1.081082 15.809249 20.148627
658  4 0.0000  8.644802  0.681809  6.122995
659  4 0.0000  8.644802  0.681809 13.135811
660  4 0.0000  8.644802  0.681809 20.148627
661  4 0.0000  8.644802  8.245529  6.122995
662  4 0.0000  8.644802  8.245529 13.135811
663  4 0.0000  8.644802  8.245529 20.148627
664  4 0.0000  8.644802 15.809249  6.122995
665  4 0.0000  8.644802 15.809249 13.135811
666  4 0.0000  8.644802 15.809249 20.148627
667  4 0.0000 16.208522  0.681809  6.122995
668  4 0.0000 16.208522  0.681809 13.135811
669  4 0.0000 16.208522  0.681809 20.148627
670  4 0.0000 16.208522  8.245529  6.122995
671  4 0.0000 16.208522  8.245529 13.135811
672  4 0.0000 16.208522  8.245529 20.148627
673  4 0.0000 16.208522 15.809249  6.122995
674  4 0.0000 16.208522 15.809249 13.135811
675  4 0.0000 16.208522 15.809249 20.148627
676  4 0.0000  1.081082  3.100051  6.149433
677  4 0.0000  1.081082  3.100051 13.162249
678  4 0.0000  1.081082  3.100051 20.175065
679  4 0.0000  1.081082 10.663771  6.149433
680  4 0.0000  1.081082 10.663771 13.162249
681  4 0.0000  1.081082 10.663771 20.175065
682  4 0.0000  1.081082 18.227491  6.149433
683  4 0.0000  1.081082 18.227491 13.162249
684  4 0.0000  1.081082 18.227491 20.175065
685  4 0.0000  8.644802  3.100051  6.149433
686  4 0.0000  8.644802  3.100051 13.162249
687  4 0.0000  8.644802  3.100051 20.175065
688  4 0.0000  8.644802 10.663771  6.149433
689  4 0.0000  8.644802 10.663771 13.162249
690  4 0.0000  8.644802 10.663771 20.175065
691  4 0.0000  8.644802 18.227491  6.149433
692  4 0.0000  8.644802 18.227491 13.162249
693  4 0.0000  8.644802 18.227491 20.175065
694  4 0.0000 16.208522  3.100051  6.149433
695  4 0.0000 16.208522  3.100051 13.162249
696  4 0.0000 16.208522  3.100051 20.175065
697  4 0.0000 16.208522 10.663771  6.149433
698  4 0.0000 16.208522 10.663771 13.162249
699  4 0.0000 16.208522 10.663771 20.175065
700  4 0.0000 16.208522 18.227491  6.149433
701  4 0.0000 16.208522 18.227491 13.162249
702  4 0.0000 16.208522 18.227491 20.175065
703  4 0.0000  2.700778  3.100051  2.616587
704  4 0.0000  2.700778  3.100051  9.629403
705  4 0.0000  2.700778  3.100051 16.642219
706  4 0.0000  2.700778 10.663771  2.616587
707  4 0.0000  2.700778 10.663771  9.629403
708  4 0.0000  2.700778 10.663771 16.642219
709  4 0.0000  2.700778 18.227491  2.616587
710  4 0.0000  2.700778 18.227491  9.629403
711  4 0.0000  2.700778 18.227491 16.642219
712  4 0.0000 10.264498  3.100051  2.616587
713  4 0.0000 10.264498  3.100051  9.629403
714  4 0.0000 10.264498  3.100051 16.642219
715  4 0.0000 10.264498 10.663771  2.616587
716  4 0.0000 10.264498 10.663771  9.629403
717  4 0.0000 10.264498 10.663771 16.642219
718  4 0.0000 10.264498 18.227491  2.616587
719  4 0.0000 10.264498 18.227491  9.629403
720  4 0.0000 10.264498 18.227491 16.642219
721  4 0.0000 17.828218  3.100051  2.616587
722  4 0.0000 17.828218  3.100051  9.629403
723  4 0.0000 17.828218  3.100051 16.642219
724  4 0.0000 17.828218 10.663771  2.616587
725  4 0.0000 17.828218 10.663771  9.629403
726  4 0.0000 17.828218 10.663771 16.642219
727  4 0.0000 17.828218 18.227491  2.616587
728  4 0.0000 17.828218 18.227491  9.629403
729  4 0.0000 17.828218 18.227491 16.642219
730  4 0.0000  6.482638  4.463669  6.149433
731  4 0.0000  6.482638  4.463669 13.162249
732  4 0.0000  6.482638  4.463669 20.175065
733  4 0.0000  6.482638 12.027389  6.149433
734  4 0.0000  6.482638 12.027389 13.162249
735  4 0.0000  6.482638 12.027389 20.175065
736  4 0.0000  6.482638 19.591109  6.149433
737  4 0.0000  6.482638 19.591109 13.162249
738  4 0.0000  6.482638 19.591109 20.175065
739  4 0.0000 14.046358  4.463669  6.149433
740  4 0.0000 14.046358  4.463669 13.162249
741  4 0.0000 14.046358  4.463669 20.175065
742  4 0.0000 14.046358 12.027389  6.149433
743  4 0.0000 14.046358 12.027389 13.162249
744  4 0.0000 14.046358 12.027389 20.175065
745  4 0.0000 14.046358 19.591109  6.149433
746  4 0.0000 14.046358 19.591109 13.162249
747  4 0.0000 14.046358 19.591109 20.175065
748  4 0.0000 21.610078  4.463669  6.149433
749  4 0.0000 21.610078  4.463669 13.162249
750  4 0.0000 21.610078  4.463669 20.175065
751  4 0.0000 21.610078 12.027389  6.149433
752  4 0.0000 21.610078 12.027389 13.162249
753  4 0.0000 21.610078 12.027389 20.175065
754  4 0.0000 21.610078 19.591109  6.149433
755  4 0.0000 21.610078 19.591109 13.162249
756  4 0.0000 21.610078 19.591109 20.175065
757  4 0.0000  0.681809  6.482638  0.889821
758  4 0.0000  0.681809  6.482638  7.902637
759  4 0.0000  0.681809  6.482638 14.915453
760  4 0.0000  0.681809 14.046358  0.889821
761  4 0.0000  0.681809 14.046358  7.902637
762  4 0.0000  0.681809 14.046358 14.915453
763  4 0.0000  0.681809 21.610078  0.889821
764  4 0.0000  0.681809 21.610078  7.902637
765  4 0.0000  0.681809 21.610078 14.915453
766  4 0.0000  8.245529  6.482638  0.889821
767  4 0.0000  8.245529  6.482638  7.902637
768  4 0.0000  8.245529  6.482638 14.915453
769  4 0.0000  8.245529 14.046358  0.889821
770  4 0.0000  8.245529 14.046358  7.902637
771  4 0.0000  8.245529 14.046358 14.915453
772  4 0.0000  8.245529 21.610078  0.889821
773  4 0.0000  8.245529 21.610078  7.902637
774  4 0.0000  8.245529 21.610078 14.915453
775  4 0.0000 15.809249  6.482638  0.889821
776  4 0.0000 15.809249  6.482638  7.902637
777  4 0.0000 15.809249  6.482638 14.915453
778  4 0.0000 15.809249 14.046358  0.889821
779  4 0.0000 15.809249 14.046358  7.902637
780  4 0.0000 15.809249 14.046358 14.915453
781  4 0.0000 15.809249 21.610078  0.889821
782  4 0.0000 15.809249 21.610078  7.902637
783  4 0.0000 15.809249 21.610078 14.915453
784  4 0.0000  4.463669  1.081082  0.863383
785  4 0.0000  4.463669  1.081082  7.876199
786  4 0.0000  4.463669  1.081082 14.889015
787  4 0.0000  4.463669  8.644802  0.863383
788  4 0.0000  4.463669  8.644802  7.876199
789  4 0.0000  4.463669  8.644802 14.889015
790  4 0.0000  4.463669 16.208522  0.863383
791  4 0.0000  4.463669 16.208522  7.876199
792  4 0.0000  4.463669 16.208522 14.889015
793  4 0.0000 12.027389  1.081082  0.863383
794  4 0.0000 12.027389  1.081082  7.876199
795  4 0.0000 12.027389  1.081082 14.889015
796  4 0.0000 12.027389  8.644802  0.863383
797  4 0.0000 12.027389  8.644802  7.876199
798  4 0.0000 12.027389  8.644802 14.889015
799  4 0.0000 12.027389 16.208522  0.863383
800  4 0.0000 12.027389 16.208522  7.876199
801  4 0.0000 12.027389 16.208522 14.889015
802  4 0.0000 19.591109  1.081082  0.863383
803  4 0.0000 19.591109  1.081082  7.876199
804  4 0.0000 19.591109  1.081082 14.889015
805  4 0.0000 19.591109  8.644802  0.863383
806  4 0.0000 19.591109  8.644802  7.876199
807  4 0.0000 19.591109  8.644802 14.889015
808  4 0.0000 19.591109 16.208522  0.863383
809  4 0.0000 19.591109 16.208522  7.876199
810  4 0.0000 19.591109 16.208522 14.889015
811  4 0.0000  3.100051  4.862942  4.396229
812  4 0.0000  3.100051  4.862942 11.409045
813  4 0.0000  3.100051  4.862942 18.421861
814  4 0.0000  3.100051 12.426662  4.396229
815  4 0.0000  3.100051 12.426662 11.409045
816  4 0.0000  3.100051 12.426662 18.421861
817  4 0.0000  3.100051 19.990382  4.396229
818  4 0.0000  3.100051 19.990382 11.409045
819  4 0.0000  3.100051 19.990382 18.421861
820  4 0.0000 10.663771  4.862942  4.396229
821  4 0.0000 10.663771  4.862942 11.409045
822  4 0.0000 10.663771  4.862942 18.421861
823  4 0.0000 10.663771 12.426662  4.396229
824  4 0.0000 10.663771 12.426662 11.409045
825  4 0.0000 10.663771 12.426662 18.421861
826  4 0.0000 10.663771 19.990382  4.396229
827  4 0.0000 10.663771 19.990382 11.409045
828  4 0.0000 10.663771 19.990382 18.421861
829  4 0.0000 18.227491  4.862942  4.396229
830  4 0.0000 18.227491  4.862942 11.409045
831  4 0.0000 18.227491  4.862942 18.421861
832  4 0.0000 18.227491 12.426662  4.396229
833  4 0.0000 18.227491 12.426662 11.409045
834  4 0.0000 18.227491 12.426662 18.421861
835  4 0.0000 18.227491 19.990382  4.396229
836  4 0.0000 18.227491 19.990382 11.409045
837  4 0.0000 18.227491 19.990382 18.421861
838  4 0.0000  3.100051  6.482638  0.863383
839  4 0.0000  3.100051  6.482638  7.876199
840  4 0.0000  3.100051  6.482638 14.889015
841  4 0.0000  3.100051 14.046358  0.863383
842  4 0.0000  3.100051 14.046358  7.876199
843  4 0.0000  3.100051 14.046358 14.889015
844  4 0.0000  3.100051 21.610078  0.863383
845  4 0.0000  3.100051 21.610078  7.876199
846  4 0.0000  3.100051 21.610078 14.889015
847  4 0.0000 10.663771  6.482638  0.863383
848  4 0.0000 10.663771  6.482638  7.876199
849  4 0.0000 10.663771  6.482638 14.889015
850  4 0.0000 10.663771 14.046358  0.863383
851  4 0.0000 10.663771 14.046358  7.876199
852  4 0.0000 10.663771 14.046358 14.889015
853  4 0.0000 10.663771 21.610078  0.863383
854  4 0.0000 10.663771 21.610078  7.876199
855  4 0.0000 10.663771 21.610078 14.889015
856  4 0.0000 18.227491  6.482638  0.863383
857  4 0.0000 18.227491  6.482638  7.876199
858  4 0.0000 18.227491  6.482638 14.889015
859  4 0.0000 18.227491 14.046358  0.863383
860  4 0.0000 18.227491 14.046358  7.876199
861  4 0.0000 18.227491 14.046358 14.889015
862  4 0.0000 18.227491 21.610078  0.863383
863  4 0.0000 18.227491 21.610078  7.876199
864  4 0.0000 18.227491 21.610078 14.889015

