Generated by pymatgen.io.lammps.data.LammpsData

1000  atoms

   2  atom types

0.000000 21.446850  xlo xhi
0.000000 21.446850  ylo yhi
0.000000 21.446850  zlo zhi

Masses

1  47.8670
2  15.9994

Atoms

1     1 0.0000  0.000000  0.000000  0.000000
2     1 0.0000  0.000000  0.000000  4.289370
3     1 0.0000  0.000000  0.000000  8.578740
4     1 0.0000  0.000000  0.000000 12.868110
5     1 0.0000  0.000000  0.000000 17.157480
6     1 0.0000  0.000000  4.289370 -0.000000
7     1 0.0000  0.000000  4.289370  4.289370
8     1 0.0000  0.000000  4.289370  8.578740
9     1 0.0000  0.000000  4.289370 12.868110
10    1 0.0000  0.000000  4.289370 17.157480
11    1 0.0000  0.000000  8.578740 -0.000000
12    1 0.0000  0.000000  8.578740  4.289370
13    1 0.0000  0.000000  8.578740  8.578740
14    1 0.0000  0.000000  8.578740 12.868110
15    1 0.0000  0.000000  8.578740 17.157480
16    1 0.0000  0.000000 12.868110  0.000000
17    1 0.0000  0.000000 12.868110  4.289370
18    1 0.0000  0.000000 12.868110  8.578740
19    1 0.0000  0.000000 12.868110 12.868110
20    1 0.0000  0.000000 12.868110 17.157480
21    1 0.0000  0.000000 17.157480 -0.000000
22    1 0.0000  0.000000 17.157480  4.289370
23    1 0.0000  0.000000 17.157480  8.578740
24    1 0.0000  0.000000 17.157480 12.868110
25    1 0.0000  0.000000 17.157480 17.157480
26    1 0.0000  4.289370  0.000000 -0.000000
27    1 0.0000  4.289370  0.000000  4.289370
28    1 0.0000  4.289370  0.000000  8.578740
29    1 0.0000  4.289370  0.000000 12.868110
30    1 0.0000  4.289370  0.000000 17.157480
31    1 0.0000  4.289370  4.289370  0.000000
32    1 0.0000  4.289370  4.289370  4.289370
33    1 0.0000  4.289370  4.289370  8.578740
34    1 0.0000  4.289370  4.289370 12.868110
35    1 0.0000  4.289370  4.289370 17.157480
36    1 0.0000  4.289370  8.578740 -0.000000
37    1 0.0000  4.289370  8.578740  4.289370
38    1 0.0000  4.289370  8.578740  8.578740
39    1 0.0000  4.289370  8.578740 12.868110
40    1 0.0000  4.289370  8.578740 17.157480
41    1 0.0000  4.289370 12.868110  0.000000
42    1 0.0000  4.289370 12.868110  4.289370
43    1 0.0000  4.289370 12.868110  8.578740
44    1 0.0000  4.289370 12.868110 12.868110
45    1 0.0000  4.289370 12.868110 17.157480
46    1 0.0000  4.289370 17.157480 -0.000000
47    1 0.0000  4.289370 17.157480  4.289370
48    1 0.0000  4.289370 17.157480  8.578740
49    1 0.0000  4.289370 17.157480 12.868110
50    1 0.0000  4.289370 17.157480 17.157480
51    1 0.0000  8.578740  0.000000 -0.000000
52    1 0.0000  8.578740  0.000000  4.289370
53    1 0.0000  8.578740  0.000000  8.578740
54    1 0.0000  8.578740  0.000000 12.868110
55    1 0.0000  8.578740  0.000000 17.157480
56    1 0.0000  8.578740  4.289370  0.000000
57    1 0.0000  8.578740  4.289370  4.289370
58    1 0.0000  8.578740  4.289370  8.578740
59    1 0.0000  8.578740  4.289370 12.868110
60    1 0.0000  8.578740  4.289370 17.157480
61    1 0.0000  8.578740  8.578740  0.000000
62    1 0.0000  8.578740  8.578740  4.289370
63    1 0.0000  8.578740  8.578740  8.578740
64    1 0.0000  8.578740  8.578740 12.868110
65    1 0.0000  8.578740  8.578740 17.157480
66    1 0.0000  8.578740 12.868110 -0.000000
67    1 0.0000  8.578740 12.868110  4.289370
68    1 0.0000  8.578740 12.868110  8.578740
69    1 0.0000  8.578740 12.868110 12.868110
70    1 0.0000  8.578740 12.868110 17.157480
71    1 0.0000  8.578740 17.157480 -0.000000
72    1 0.0000  8.578740 17.157480  4.289370
73    1 0.0000  8.578740 17.157480  8.578740
74    1 0.0000  8.578740 17.157480 12.868110
75    1 0.0000  8.578740 17.157480 17.157480
76    1 0.0000 12.868110  0.000000  0.000000
77    1 0.0000 12.868110  0.000000  4.289370
78    1 0.0000 12.868110  0.000000  8.578740
79    1 0.0000 12.868110  0.000000 12.868110
80    1 0.0000 12.868110  0.000000 17.157480
81    1 0.0000 12.868110  4.289370  0.000000
82    1 0.0000 12.868110  4.289370  4.289370
83    1 0.0000 12.868110  4.289370  8.578740
84    1 0.0000 12.868110  4.289370 12.868110
85    1 0.0000 12.868110  4.289370 17.157480
86    1 0.0000 12.868110  8.578740  0.000000
87    1 0.0000 12.868110  8.578740  4.289370
88    1 0.0000 12.868110  8.578740  8.578740
89    1 0.0000 12.868110  8.578740 12.868110
90    1 0.0000 12.868110  8.578740 17.157480
91    1 0.0000 12.868110 12.868110  0.000000
92    1 0.0000 12.868110 12.868110  4.289370
93    1 0.0000 12.868110 12.868110  8.578740
94    1 0.0000 12.868110 12.868110 12.868110
95    1 0.0000 12.868110 12.868110 17.157480
96    1 0.0000 12.868110 17.157480  0.000000
97    1 0.0000 12.868110 17.157480  4.289370
98    1 0.0000 12.868110 17.157480  8.578740
99    1 0.0000 12.868110 17.157480 12.868110
100   1 0.0000 12.868110 17.157480 17.157480
101   1 0.0000 17.157480  0.000000 -0.000000
102   1 0.0000 17.157480  0.000000  4.289370
103   1 0.0000 17.157480  0.000000  8.578740
104   1 0.0000 17.157480  0.000000 12.868110
105   1 0.0000 17.157480  0.000000 17.157480
106   1 0.0000 17.157480  4.289370 -0.000000
107   1 0.0000 17.157480  4.289370  4.289370
108   1 0.0000 17.157480  4.289370  8.578740
109   1 0.0000 17.157480  4.289370 12.868110
110   1 0.0000 17.157480  4.289370 17.157480
111   1 0.0000 17.157480  8.578740  0.000000
112   1 0.0000 17.157480  8.578740  4.289370
113   1 0.0000 17.157480  8.578740  8.578740
114   1 0.0000 17.157480  8.578740 12.868110
115   1 0.0000 17.157480  8.578740 17.157480
116   1 0.0000 17.157480 12.868110 -0.000000
117   1 0.0000 17.157480 12.868110  4.289370
118   1 0.0000 17.157480 12.868110  8.578740
119   1 0.0000 17.157480 12.868110 12.868110
120   1 0.0000 17.157480 12.868110 17.157480
121   1 0.0000 17.157480 17.157480  0.000000
122   1 0.0000 17.157480 17.157480  4.289370
123   1 0.0000 17.157480 17.157480  8.578740
124   1 0.0000 17.157480 17.157480 12.868110
125   1 0.0000 17.157480 17.157480 17.157480
126   1 0.0000  0.000000  2.144685  2.144685
127   1 0.0000  0.000000  2.144685  6.434055
128   1 0.0000  0.000000  2.144685 10.723425
129   1 0.0000  0.000000  2.144685 15.012795
130   1 0.0000  0.000000  2.144685 19.302165
131   1 0.0000  0.000000  6.434055  2.144685
132   1 0.0000  0.000000  6.434055  6.434055
133   1 0.0000  0.000000  6.434055 10.723425
134   1 0.0000  0.000000  6.434055 15.012795
135   1 0.0000  0.000000  6.434055 19.302165
136   1 0.0000  0.000000 10.723425  2.144685
137   1 0.0000  0.000000 10.723425  6.434055
138   1 0.0000  0.000000 10.723425 10.723425
139   1 0.0000  0.000000 10.723425 15.012795
140   1 0.0000  0.000000 10.723425 19.302165
141   1 0.0000  0.000000 15.012795  2.144685
142   1 0.0000  0.000000 15.012795  6.434055
143   1 0.0000  0.000000 15.012795 10.723425
144   1 0.0000  0.000000 15.012795 15.012795
145   1 0.0000  0.000000 15.012795 19.302165
146   1 0.0000  0.000000 19.302165  2.144685
147   1 0.0000  0.000000 19.302165  6.434055
148   1 0.0000  0.000000 19.302165 10.723425
149   1 0.0000  0.000000 19.302165 15.012795
150   1 0.0000  0.000000 19.302165 19.302165
151   1 0.0000  4.289370  2.144685  2.144685
152   1 0.0000  4.289370  2.144685  6.434055
153   1 0.0000  4.289370  2.144685 10.723425
154   1 0.0000  4.289370  2.144685 15.012795
155   1 0.0000  4.289370  2.144685 19.302165
156   1 0.0000  4.289370  6.434055  2.144685
157   1 0.0000  4.289370  6.434055  6.434055
158   1 0.0000  4.289370  6.434055 10.723425
159   1 0.0000  4.289370  6.434055 15.012795
160   1 0.0000  4.289370  6.434055 19.302165
161   1 0.0000  4.289370 10.723425  2.144685
162   1 0.0000  4.289370 10.723425  6.434055
163   1 0.0000  4.289370 10.723425 10.723425
164   1 0.0000  4.289370 10.723425 15.012795
165   1 0.0000  4.289370 10.723425 19.302165
166   1 0.0000  4.289370 15.012795  2.144685
167   1 0.0000  4.289370 15.012795  6.434055
168   1 0.0000  4.289370 15.012795 10.723425
169   1 0.0000  4.289370 15.012795 15.012795
170   1 0.0000  4.289370 15.012795 19.302165
171   1 0.0000  4.289370 19.302165  2.144685
172   1 0.0000  4.289370 19.302165  6.434055
173   1 0.0000  4.289370 19.302165 10.723425
174   1 0.0000  4.289370 19.302165 15.012795
175   1 0.0000  4.289370 19.302165 19.302165
176   1 0.0000  8.578740  2.144685  2.144685
177   1 0.0000  8.578740  2.144685  6.434055
178   1 0.0000  8.578740  2.144685 10.723425
179   1 0.0000  8.578740  2.144685 15.012795
180   1 0.0000  8.578740  2.144685 19.302165
181   1 0.0000  8.578740  6.434055  2.144685
182   1 0.0000  8.578740  6.434055  6.434055
183   1 0.0000  8.578740  6.434055 10.723425
184   1 0.0000  8.578740  6.434055 15.012795
185   1 0.0000  8.578740  6.434055 19.302165
186   1 0.0000  8.578740 10.723425  2.144685
187   1 0.0000  8.578740 10.723425  6.434055
188   1 0.0000  8.578740 10.723425 10.723425
189   1 0.0000  8.578740 10.723425 15.012795
190   1 0.0000  8.578740 10.723425 19.302165
191   1 0.0000  8.578740 15.012795  2.144685
192   1 0.0000  8.578740 15.012795  6.434055
193   1 0.0000  8.578740 15.012795 10.723425
194   1 0.0000  8.578740 15.012795 15.012795
195   1 0.0000  8.578740 15.012795 19.302165
196   1 0.0000  8.578740 19.302165  2.144685
197   1 0.0000  8.578740 19.302165  6.434055
198   1 0.0000  8.578740 19.302165 10.723425
199   1 0.0000  8.578740 19.302165 15.012795
200   1 0.0000  8.578740 19.302165 19.302165
201   1 0.0000 12.868110  2.144685  2.144685
202   1 0.0000 12.868110  2.144685  6.434055
203   1 0.0000 12.868110  2.144685 10.723425
204   1 0.0000 12.868110  2.144685 15.012795
205   1 0.0000 12.868110  2.144685 19.302165
206   1 0.0000 12.868110  6.434055  2.144685
207   1 0.0000 12.868110  6.434055  6.434055
208   1 0.0000 12.868110  6.434055 10.723425
209   1 0.0000 12.868110  6.434055 15.012795
210   1 0.0000 12.868110  6.434055 19.302165
211   1 0.0000 12.868110 10.723425  2.144685
212   1 0.0000 12.868110 10.723425  6.434055
213   1 0.0000 12.868110 10.723425 10.723425
214   1 0.0000 12.868110 10.723425 15.012795
215   1 0.0000 12.868110 10.723425 19.302165
216   1 0.0000 12.868110 15.012795  2.144685
217   1 0.0000 12.868110 15.012795  6.434055
218   1 0.0000 12.868110 15.012795 10.723425
219   1 0.0000 12.868110 15.012795 15.012795
220   1 0.0000 12.868110 15.012795 19.302165
221   1 0.0000 12.868110 19.302165  2.144685
222   1 0.0000 12.868110 19.302165  6.434055
223   1 0.0000 12.868110 19.302165 10.723425
224   1 0.0000 12.868110 19.302165 15.012795
225   1 0.0000 12.868110 19.302165 19.302165
226   1 0.0000 17.157480  2.144685  2.144685
227   1 0.0000 17.157480  2.144685  6.434055
228   1 0.0000 17.157480  2.144685 10.723425
229   1 0.0000 17.157480  2.144685 15.012795
230   1 0.0000 17.157480  2.144685 19.302165
231   1 0.0000 17.157480  6.434055  2.144685
232   1 0.0000 17.157480  6.434055  6.434055
233   1 0.0000 17.157480  6.434055 10.723425
234   1 0.0000 17.157480  6.434055 15.012795
235   1 0.0000 17.157480  6.434055 19.302165
236   1 0.0000 17.157480 10.723425  2.144685
237   1 0.0000 17.157480 10.723425  6.434055
238   1 0.0000 17.157480 10.723425 10.723425
239   1 0.0000 17.157480 10.723425 15.012795
240   1 0.0000 17.157480 10.723425 19.302165
241   1 0.0000 17.157480 15.012795  2.144685
242   1 0.0000 17.157480 15.012795  6.434055
243   1 0.0000 17.157480 15.012795 10.723425
244   1 0.0000 17.157480 15.012795 15.012795
245   1 0.0000 17.157480 15.012795 19.302165
246   1 0.0000 17.157480 19.302165  2.144685
247   1 0.0000 17.157480 19.302165  6.434055
248   1 0.0000 17.157480 19.302165 10.723425
249   1 0.0000 17.157480 19.302165 15.012795
250   1 0.0000 17.157480 19.302165 19.302165
251   1 0.0000  2.144685  0.000000  2.144685
252   1 0.0000  2.144685  0.000000  6.434055
253   1 0.0000  2.144685  0.000000 10.723425
254   1 0.0000  2.144685  0.000000 15.012795
255   1 0.0000  2.144685  0.000000 19.302165
256   1 0.0000  2.144685  4.289370  2.144685
257   1 0.0000  2.144685  4.289370  6.434055
258   1 0.0000  2.144685  4.289370 10.723425
259   1 0.0000  2.144685  4.289370 15.012795
260   1 0.0000  2.144685  4.289370 19.302165
261   1 0.0000  2.144685  8.578740  2.144685
262   1 0.0000  2.144685  8.578740  6.434055
263   1 0.0000  2.144685  8.578740 10.723425
264   1 0.0000  2.144685  8.578740 15.012795
265   1 0.0000  2.144685  8.578740 19.302165
266   1 0.0000  2.144685 12.868110  2.144685
267   1 0.0000  2.144685 12.868110  6.434055
268   1 0.0000  2.144685 12.868110 10.723425
269   1 0.0000  2.144685 12.868110 15.012795
270   1 0.0000  2.144685 12.868110 19.302165
271   1 0.0000  2.144685 17.157480  2.144685
272   1 0.0000  2.144685 17.157480  6.434055
273   1 0.0000  2.144685 17.157480 10.723425
274   1 0.0000  2.144685 17.157480 15.012795
275   1 0.0000  2.144685 17.157480 19.302165
276   1 0.0000  6.434055  0.000000  2.144685
277   1 0.0000  6.434055  0.000000  6.434055
278   1 0.0000  6.434055  0.000000 10.723425
279   1 0.0000  6.434055  0.000000 15.012795
280   1 0.0000  6.434055  0.000000 19.302165
281   1 0.0000  6.434055  4.289370  2.144685
282   1 0.0000  6.434055  4.289370  6.434055
283   1 0.0000  6.434055  4.289370 10.723425
284   1 0.0000  6.434055  4.289370 15.012795
285   1 0.0000  6.434055  4.289370 19.302165
286   1 0.0000  6.434055  8.578740  2.144685
287   1 0.0000  6.434055  8.578740  6.434055
288   1 0.0000  6.434055  8.578740 10.723425
289   1 0.0000  6.434055  8.578740 15.012795
290   1 0.0000  6.434055  8.578740 19.302165
291   1 0.0000  6.434055 12.868110  2.144685
292   1 0.0000  6.434055 12.868110  6.434055
293   1 0.0000  6.434055 12.868110 10.723425
294   1 0.0000  6.434055 12.868110 15.012795
295   1 0.0000  6.434055 12.868110 19.302165
296   1 0.0000  6.434055 17.157480  2.144685
297   1 0.0000  6.434055 17.157480  6.434055
298   1 0.0000  6.434055 17.157480 10.723425
299   1 0.0000  6.434055 17.157480 15.012795
300   1 0.0000  6.434055 17.157480 19.302165
301   1 0.0000 10.723425  0.000000  2.144685
302   1 0.0000 10.723425  0.000000  6.434055
303   1 0.0000 10.723425  0.000000 10.723425
304   1 0.0000 10.723425  0.000000 15.012795
305   1 0.0000 10.723425  0.000000 19.302165
306   1 0.0000 10.723425  4.289370  2.144685
307   1 0.0000 10.723425  4.289370  6.434055
308   1 0.0000 10.723425  4.289370 10.723425
309   1 0.0000 10.723425  4.289370 15.012795
310   1 0.0000 10.723425  4.289370 19.302165
311   1 0.0000 10.723425  8.578740  2.144685
312   1 0.0000 10.723425  8.578740  6.434055
313   1 0.0000 10.723425  8.578740 10.723425
314   1 0.0000 10.723425  8.578740 15.012795
315   1 0.0000 10.723425  8.578740 19.302165
316   1 0.0000 10.723425 12.868110  2.144685
317   1 0.0000 10.723425 12.868110  6.434055
318   1 0.0000 10.723425 12.868110 10.723425
319   1 0.0000 10.723425 12.868110 15.012795
320   1 0.0000 10.723425 12.868110 19.302165
321   1 0.0000 10.723425 17.157480  2.144685
322   1 0.0000 10.723425 17.157480  6.434055
323   1 0.0000 10.723425 17.157480 10.723425
324   1 0.0000 10.723425 17.157480 15.012795
325   1 0.0000 10.723425 17.157480 19.302165
326   1 0.0000 15.012795  0.000000  2.144685
327   1 0.0000 15.012795  0.000000  6.434055
328   1 0.0000 15.012795  0.000000 10.723425
329   1 0.0000 15.012795  0.000000 15.012795
330   1 0.0000 15.012795  0.000000 19.302165
331   1 0.0000 15.012795  4.289370  2.144685
332   1 0.0000 15.012795  4.289370  6.434055
333   1 0.0000 15.012795  4.289370 10.723425
334   1 0.0000 15.012795  4.289370 15.012795
335   1 0.0000 15.012795  4.289370 19.302165
336   1 0.0000 15.012795  8.578740  2.144685
337   1 0.0000 15.012795  8.578740  6.434055
338   1 0.0000 15.012795  8.578740 10.723425
339   1 0.0000 15.012795  8.578740 15.012795
340   1 0.0000 15.012795  8.578740 19.302165
341   1 0.0000 15.012795 12.868110  2.144685
342   1 0.0000 15.012795 12.868110  6.434055
343   1 0.0000 15.012795 12.868110 10.723425
344   1 0.0000 15.012795 12.868110 15.012795
345   1 0.0000 15.012795 12.868110 19.302165
346   1 0.0000 15.012795 17.157480  2.144685
347   1 0.0000 15.012795 17.157480  6.434055
348   1 0.0000 15.012795 17.157480 10.723425
349   1 0.0000 15.012795 17.157480 15.012795
350   1 0.0000 15.012795 17.157480 19.302165
351   1 0.0000 19.302165  0.000000  2.144685
352   1 0.0000 19.302165  0.000000  6.434055
353   1 0.0000 19.302165  0.000000 10.723425
354   1 0.0000 19.302165  0.000000 15.012795
355   1 0.0000 19.302165  0.000000 19.302165
356   1 0.0000 19.302165  4.289370  2.144685
357   1 0.0000 19.302165  4.289370  6.434055
358   1 0.0000 19.302165  4.289370 10.723425
359   1 0.0000 19.302165  4.289370 15.012795
360   1 0.0000 19.302165  4.289370 19.302165
361   1 0.0000 19.302165  8.578740  2.144685
362   1 0.0000 19.302165  8.578740  6.434055
363   1 0.0000 19.302165  8.578740 10.723425
364   1 0.0000 19.302165  8.578740 15.012795
365   1 0.0000 19.302165  8.578740 19.302165
366   1 0.0000 19.302165 12.868110  2.144685
367   1 0.0000 19.302165 12.868110  6.434055
368   1 0.0000 19.302165 12.868110 10.723425
369   1 0.0000 19.302165 12.868110 15.012795
370   1 0.0000 19.302165 12.868110 19.302165
371   1 0.0000 19.302165 17.157480  2.144685
372   1 0.0000 19.302165 17.157480  6.434055
373   1 0.0000 19.302165 17.157480 10.723425
374   1 0.0000 19.302165 17.157480 15.012795
375   1 0.0000 19.302165 17.157480 19.302165
376   1 0.0000  2.144685  2.144685  0.000000
377   1 0.0000  2.144685  2.144685  4.289370
378   1 0.0000  2.144685  2.144685  8.578740
379   1 0.0000  2.144685  2.144685 12.868110
380   1 0.0000  2.144685  2.144685 17.157480
381   1 0.0000  2.144685  6.434055  0.000000
382   1 0.0000  2.144685  6.434055  4.289370
383   1 0.0000  2.144685  6.434055  8.578740
384   1 0.0000  2.144685  6.434055 12.868110
385   1 0.0000  2.144685  6.434055 17.157480
386   1 0.0000  2.144685 10.723425  0.000000
387   1 0.0000  2.144685 10.723425  4.289370
388   1 0.0000  2.144685 10.723425  8.578740
389   1 0.0000  2.144685 10.723425 12.868110
390   1 0.0000  2.144685 10.723425 17.157480
391   1 0.0000  2.144685 15.012795  0.000000
392   1 0.0000  2.144685 15.012795  4.289370
393   1 0.0000  2.144685 15.012795  8.578740
394   1 0.0000  2.144685 15.012795 12.868110
395   1 0.0000  2.144685 15.012795 17.157480
396   1 0.0000  2.144685 19.302165 -0.000000
397   1 0.0000  2.144685 19.302165  4.289370
398   1 0.0000  2.144685 19.302165  8.578740
399   1 0.0000  2.144685 19.302165 12.868110
400   1 0.0000  2.144685 19.302165 17.157480
401   1 0.0000  6.434055  2.144685  0.000000
402   1 0.0000  6.434055  2.144685  4.289370
403   1 0.0000  6.434055  2.144685  8.578740
404   1 0.0000  6.434055  2.144685 12.868110
405   1 0.0000  6.434055  2.144685 17.157480
406   1 0.0000  6.434055  6.434055  0.000000
407   1 0.0000  6.434055  6.434055  4.289370
408   1 0.0000  6.434055  6.434055  8.578740
409   1 0.0000  6.434055  6.434055 12.868110
410   1 0.0000  6.434055  6.434055 17.157480
411   1 0.0000  6.434055 10.723425  0.000000
412   1 0.0000  6.434055 10.723425  4.289370
413   1 0.0000  6.434055 10.723425  8.578740
414   1 0.0000  6.434055 10.723425 12.868110
415   1 0.0000  6.434055 10.723425 17.157480
416   1 0.0000  6.434055 15.012795 -0.000000
417   1 0.0000  6.434055 15.012795  4.289370
418   1 0.0000  6.434055 15.012795  8.578740
419   1 0.0000  6.434055 15.012795 12.868110
420   1 0.0000  6.434055 15.012795 17.157480
421   1 0.0000  6.434055 19.302165  0.000000
422   1 0.0000  6.434055 19.302165  4.289370
423   1 0.0000  6.434055 19.302165  8.578740
424   1 0.0000  6.434055 19.302165 12.868110
425   1 0.0000  6.434055 19.302165 17.157480
426   1 0.0000 10.723425  2.144685 -0.000000
427   1 0.0000 10.723425  2.144685  4.289370
428   1 0.0000 10.723425  2.144685  8.578740
429   1 0.0000 10.723425  2.144685 12.868110
430   1 0.0000 10.723425  2.144685 17.157480
431   1 0.0000 10.723425  6.434055 -0.000000
432   1 0.0000 10.723425  6.434055  4.289370
433   1 0.0000 10.723425  6.434055  8.578740
434   1 0.0000 10.723425  6.434055 12.868110
435   1 0.0000 10.723425  6.434055 17.157480
436   1 0.0000 10.723425 10.723425 -0.000000
437   1 0.0000 10.723425 10.723425  4.289370
438   1 0.0000 10.723425 10.723425  8.578740
439   1 0.0000 10.723425 10.723425 12.868110
440   1 0.0000 10.723425 10.723425 17.157480
441   1 0.0000 10.723425 15.012795  0.000000
442   1 0.0000 10.723425 15.012795  4.289370
443   1 0.0000 10.723425 15.012795  8.578740
444   1 0.0000 10.723425 15.012795 12.868110
445   1 0.0000 10.723425 15.012795 17.157480
446   1 0.0000 10.723425 19.302165  0.000000
447   1 0.0000 10.723425 19.302165  4.289370
448   1 0.0000 10.723425 19.302165  8.578740
449   1 0.0000 10.723425 19.302165 12.868110
450   1 0.0000 10.723425 19.302165 17.157480
451   1 0.0000 15.012795  2.144685  0.000000
452   1 0.0000 15.012795  2.144685  4.289370
453   1 0.0000 15.012795  2.144685  8.578740
454   1 0.0000 15.012795  2.144685 12.868110
455   1 0.0000 15.012795  2.144685 17.157480
456   1 0.0000 15.012795  6.434055 -0.000000
457   1 0.0000 15.012795  6.434055  4.289370
458   1 0.0000 15.012795  6.434055  8.578740
459   1 0.0000 15.012795  6.434055 12.868110
460   1 0.0000 15.012795  6.434055 17.157480
461   1 0.0000 15.012795 10.723425 -0.000000
462   1 0.0000 15.012795 10.723425  4.289370
463   1 0.0000 15.012795 10.723425  8.578740
464   1 0.0000 15.012795 10.723425 12.868110
465   1 0.0000 15.012795 10.723425 17.157480
466   1 0.0000 15.012795 15.012795  0.000000
467   1 0.0000 15.012795 15.012795  4.289370
468   1 0.0000 15.012795 15.012795  8.578740
469   1 0.0000 15.012795 15.012795 12.868110
470   1 0.0000 15.012795 15.012795 17.157480
471   1 0.0000 15.012795 19.302165  0.000000
472   1 0.0000 15.012795 19.302165  4.289370
473   1 0.0000 15.012795 19.302165  8.578740
474   1 0.0000 15.012795 19.302165 12.868110
475   1 0.0000 15.012795 19.302165 17.157480
476   1 0.0000 19.302165  2.144685  0.000000
477   1 0.0000 19.302165  2.144685  4.289370
478   1 0.0000 19.302165  2.144685  8.578740
479   1 0.0000 19.302165  2.144685 12.868110
480   1 0.0000 19.302165  2.144685 17.157480
481   1 0.0000 19.302165  6.434055  0.000000
482   1 0.0000 19.302165  6.434055  4.289370
483   1 0.0000 19.302165  6.434055  8.578740
484   1 0.0000 19.302165  6.434055 12.868110
485   1 0.0000 19.302165  6.434055 17.157480
486   1 0.0000 19.302165 10.723425  0.000000
487   1 0.0000 19.302165 10.723425  4.289370
488   1 0.0000 19.302165 10.723425  8.578740
489   1 0.0000 19.302165 10.723425 12.868110
490   1 0.0000 19.302165 10.723425 17.157480
491   1 0.0000 19.302165 15.012795 -0.000000
492   1 0.0000 19.302165 15.012795  4.289370
493   1 0.0000 19.302165 15.012795  8.578740
494   1 0.0000 19.302165 15.012795 12.868110
495   1 0.0000 19.302165 15.012795 17.157480
496   1 0.0000 19.302165 19.302165 -0.000000
497   1 0.0000 19.302165 19.302165  4.289370
498   1 0.0000 19.302165 19.302165  8.578740
499   1 0.0000 19.302165 19.302165 12.868110
500   1 0.0000 19.302165 19.302165 17.157480
501   2 0.0000  0.000000  0.000000  2.144685
502   2 0.0000  0.000000  0.000000  6.434055
503   2 0.0000  0.000000  0.000000 10.723425
504   2 0.0000  0.000000  0.000000 15.012795
505   2 0.0000  0.000000  0.000000 19.302165
506   2 0.0000  0.000000  4.289370  2.144685
507   2 0.0000  0.000000  4.289370  6.434055
508   2 0.0000  0.000000  4.289370 10.723425
509   2 0.0000  0.000000  4.289370 15.012795
510   2 0.0000  0.000000  4.289370 19.302165
511   2 0.0000  0.000000  8.578740  2.144685
512   2 0.0000  0.000000  8.578740  6.434055
513   2 0.0000  0.000000  8.578740 10.723425
514   2 0.0000  0.000000  8.578740 15.012795
515   2 0.0000  0.000000  8.578740 19.302165
516   2 0.0000  0.000000 12.868110  2.144685
517   2 0.0000  0.000000 12.868110  6.434055
518   2 0.0000  0.000000 12.868110 10.723425
519   2 0.0000  0.000000 12.868110 15.012795
520   2 0.0000  0.000000 12.868110 19.302165
521   2 0.0000  0.000000 17.157480  2.144685
522   2 0.0000  0.000000 17.157480  6.434055
523   2 0.0000  0.000000 17.157480 10.723425
524   2 0.0000  0.000000 17.157480 15.012795
525   2 0.0000  0.000000 17.157480 19.302165
526   2 0.0000  4.289370  0.000000  2.144685
527   2 0.0000  4.289370  0.000000  6.434055
528   2 0.0000  4.289370  0.000000 10.723425
529   2 0.0000  4.289370  0.000000 15.012795
530   2 0.0000  4.289370  0.000000 19.302165
531   2 0.0000  4.289370  4.289370  2.144685
532   2 0.0000  4.289370  4.289370  6.434055
533   2 0.0000  4.289370  4.289370 10.723425
534   2 0.0000  4.289370  4.289370 15.012795
535   2 0.0000  4.289370  4.289370 19.302165
536   2 0.0000  4.289370  8.578740  2.144685
537   2 0.0000  4.289370  8.578740  6.434055
538   2 0.0000  4.289370  8.578740 10.723425
539   2 0.0000  4.289370  8.578740 15.012795
540   2 0.0000  4.289370  8.578740 19.302165
541   2 0.0000  4.289370 12.868110  2.144685
542   2 0.0000  4.289370 12.868110  6.434055
543   2 0.0000  4.289370 12.868110 10.723425
544   2 0.0000  4.289370 12.868110 15.012795
545   2 0.0000  4.289370 12.868110 19.302165
546   2 0.0000  4.289370 17.157480  2.144685
547   2 0.0000  4.289370 17.157480  6.434055
548   2 0.0000  4.289370 17.157480 10.723425
549   2 0.0000  4.289370 17.157480 15.012795
550   2 0.0000  4.289370 17.157480 19.302165
551   2 0.0000  8.578740  0.000000  2.144685
552   2 0.0000  8.578740  0.000000  6.434055
553   2 0.0000  8.578740  0.000000 10.723425
554   2 0.0000  8.578740  0.000000 15.012795
555   2 0.0000  8.578740  0.000000 19.302165
556   2 0.0000  8.578740  4.289370  2.144685
557   2 0.0000  8.578740  4.289370  6.434055
558   2 0.0000  8.578740  4.289370 10.723425
559   2 0.0000  8.578740  4.289370 15.012795
560   2 0.0000  8.578740  4.289370 19.302165
561   2 0.0000  8.578740  8.578740  2.144685
562   2 0.0000  8.578740  8.578740  6.434055
563   2 0.0000  8.578740  8.578740 10.723425
564   2 0.0000  8.578740  8.578740 15.012795
565   2 0.0000  8.578740  8.578740 19.302165
566   2 0.0000  8.578740 12.868110  2.144685
567   2 0.0000  8.578740 12.868110  6.434055
568   2 0.0000  8.578740 12.868110 10.723425
569   2 0.0000  8.578740 12.868110 15.012795
570   2 0.0000  8.578740 12.868110 19.302165
571   2 0.0000  8.578740 17.157480  2.144685
572   2 0.0000  8.578740 17.157480  6.434055
573   2 0.0000  8.578740 17.157480 10.723425
574   2 0.0000  8.578740 17.157480 15.012795
575   2 0.0000  8.578740 17.157480 19.302165
576   2 0.0000 12.868110  0.000000  2.144685
577   2 0.0000 12.868110  0.000000  6.434055
578   2 0.0000 12.868110  0.000000 10.723425
579   2 0.0000 12.868110  0.000000 15.012795
580   2 0.0000 12.868110  0.000000 19.302165
581   2 0.0000 12.868110  4.289370  2.144685
582   2 0.0000 12.868110  4.289370  6.434055
583   2 0.0000 12.868110  4.289370 10.723425
584   2 0.0000 12.868110  4.289370 15.012795
585   2 0.0000 12.868110  4.289370 19.302165
586   2 0.0000 12.868110  8.578740  2.144685
587   2 0.0000 12.868110  8.578740  6.434055
588   2 0.0000 12.868110  8.578740 10.723425
589   2 0.0000 12.868110  8.578740 15.012795
590   2 0.0000 12.868110  8.578740 19.302165
591   2 0.0000 12.868110 12.868110  2.144685
592   2 0.0000 12.868110 12.868110  6.434055
593   2 0.0000 12.868110 12.868110 10.723425
594   2 0.0000 12.868110 12.868110 15.012795
595   2 0.0000 12.868110 12.868110 19.302165
596   2 0.0000 12.868110 17.157480  2.144685
597   2 0.0000 12.868110 17.157480  6.434055
598   2 0.0000 12.868110 17.157480 10.723425
599   2 0.0000 12.868110 17.157480 15.012795
600   2 0.0000 12.868110 17.157480 19.302165
601   2 0.0000 17.157480  0.000000  2.144685
602   2 0.0000 17.157480  0.000000  6.434055
603   2 0.0000 17.157480  0.000000 10.723425
604   2 0.0000 17.157480  0.000000 15.012795
605   2 0.0000 17.157480  0.000000 19.302165
606   2 0.0000 17.157480  4.289370  2.144685
607   2 0.0000 17.157480  4.289370  6.434055
608   2 0.0000 17.157480  4.289370 10.723425
609   2 0.0000 17.157480  4.289370 15.012795
610   2 0.0000 17.157480  4.289370 19.302165
611   2 0.0000 17.157480  8.578740  2.144685
612   2 0.0000 17.157480  8.578740  6.434055
613   2 0.0000 17.157480  8.578740 10.723425
614   2 0.0000 17.157480  8.578740 15.012795
615   2 0.0000 17.157480  8.578740 19.302165
616   2 0.0000 17.157480 12.868110  2.144685
617   2 0.0000 17.157480 12.868110  6.434055
618   2 0.0000 17.157480 12.868110 10.723425
619   2 0.0000 17.157480 12.868110 15.012795
620   2 0.0000 17.157480 12.868110 19.302165
621   2 0.0000 17.157480 17.157480  2.144685
622   2 0.0000 17.157480 17.157480  6.434055
623   2 0.0000 17.157480 17.157480 10.723425
624   2 0.0000 17.157480 17.157480 15.012795
625   2 0.0000 17.157480 17.157480 19.302165
626   2 0.0000  0.000000  2.144685 -0.000000
627   2 0.0000  0.000000  2.144685  4.289370
628   2 0.0000  0.000000  2.144685  8.578740
629   2 0.0000  0.000000  2.144685 12.868110
630   2 0.0000  0.000000  2.144685 17.157480
631   2 0.0000  0.000000  6.434055  0.000000
632   2 0.0000  0.000000  6.434055  4.289370
633   2 0.0000  0.000000  6.434055  8.578740
634   2 0.0000  0.000000  6.434055 12.868110
635   2 0.0000  0.000000  6.434055 17.157480
636   2 0.0000  0.000000 10.723425  0.000000
637   2 0.0000  0.000000 10.723425  4.289370
638   2 0.0000  0.000000 10.723425  8.578740
639   2 0.0000  0.000000 10.723425 12.868110
640   2 0.0000  0.000000 10.723425 17.157480
641   2 0.0000  0.000000 15.012795 -0.000000
642   2 0.0000  0.000000 15.012795  4.289370
643   2 0.0000  0.000000 15.012795  8.578740
644   2 0.0000  0.000000 15.012795 12.868110
645   2 0.0000  0.000000 15.012795 17.157480
646   2 0.0000  0.000000 19.302165  0.000000
647   2 0.0000  0.000000 19.302165  4.289370
648   2 0.0000  0.000000 19.302165  8.578740
649   2 0.0000  0.000000 19.302165 12.868110
650   2 0.0000  0.000000 19.302165 17.157480
651   2 0.0000  4.289370  2.144685  0.000000
652   2 0.0000  4.289370  2.144685  4.289370
653   2 0.0000  4.289370  2.144685  8.578740
654   2 0.0000  4.289370  2.144685 12.868110
655   2 0.0000  4.289370  2.144685 17.157480
656   2 0.0000  4.289370  6.434055 -0.000000
657   2 0.0000  4.289370  6.434055  4.289370
658   2 0.0000  4.289370  6.434055  8.578740
659   2 0.0000  4.289370  6.434055 12.868110
660   2 0.0000  4.289370  6.434055 17.157480
661   2 0.0000  4.289370 10.723425  0.000000
662   2 0.0000  4.289370 10.723425  4.289370
663   2 0.0000  4.289370 10.723425  8.578740
664   2 0.0000  4.289370 10.723425 12.868110
665   2 0.0000  4.289370 10.723425 17.157480
666   2 0.0000  4.289370 15.012795 -0.000000
667   2 0.0000  4.289370 15.012795  4.289370
668   2 0.0000  4.289370 15.012795  8.578740
669   2 0.0000  4.289370 15.012795 12.868110
670   2 0.0000  4.289370 15.012795 17.157480
671   2 0.0000  4.289370 19.302165  0.000000
672   2 0.0000  4.289370 19.302165  4.289370
673   2 0.0000  4.289370 19.302165  8.578740
674   2 0.0000  4.289370 19.302165 12.868110
675   2 0.0000  4.289370 19.302165 17.157480
676   2 0.0000  8.578740  2.144685 -0.000000
677   2 0.0000  8.578740  2.144685  4.289370
678   2 0.0000  8.578740  2.144685  8.578740
679   2 0.0000  8.578740  2.144685 12.868110
680   2 0.0000  8.578740  2.144685 17.157480
681   2 0.0000  8.578740  6.434055  0.000000
682   2 0.0000  8.578740  6.434055  4.289370
683   2 0.0000  8.578740  6.434055  8.578740
684   2 0.0000  8.578740  6.434055 12.868110
685   2 0.0000  8.578740  6.434055 17.157480
686   2 0.0000  8.578740 10.723425 -0.000000
687   2 0.0000  8.578740 10.723425  4.289370
688   2 0.0000  8.578740 10.723425  8.578740
689   2 0.0000  8.578740 10.723425 12.868110
690   2 0.0000  8.578740 10.723425 17.157480
691   2 0.0000  8.578740 15.012795  0.000000
692   2 0.0000  8.578740 15.012795  4.289370
693   2 0.0000  8.578740 15.012795  8.578740
694   2 0.0000  8.578740 15.012795 12.868110
695   2 0.0000  8.578740 15.012795 17.157480
696   2 0.0000  8.578740 19.302165 -0.000000
697   2 0.0000  8.578740 19.302165  4.289370
698   2 0.0000  8.578740 19.302165  8.578740
699   2 0.0000  8.578740 19.302165 12.868110
700   2 0.0000  8.578740 19.302165 17.157480
701   2 0.0000 12.868110  2.144685  0.000000
702   2 0.0000 12.868110  2.144685  4.289370
703   2 0.0000 12.868110  2.144685  8.578740
704   2 0.0000 12.868110  2.144685 12.868110
705   2 0.0000 12.868110  2.144685 17.157480
706   2 0.0000 12.868110  6.434055  0.000000
707   2 0.0000 12.868110  6.434055  4.289370
708   2 0.0000 12.868110  6.434055  8.578740
709   2 0.0000 12.868110  6.434055 12.868110
710   2 0.0000 12.868110  6.434055 17.157480
711   2 0.0000 12.868110 10.723425  0.000000
712   2 0.0000 12.868110 10.723425  4.289370
713   2 0.0000 12.868110 10.723425  8.578740
714   2 0.0000 12.868110 10.723425 12.868110
715   2 0.0000 12.868110 10.723425 17.157480
716   2 0.0000 12.868110 15.012795 -0.000000
717   2 0.0000 12.868110 15.012795  4.289370
718   2 0.0000 12.868110 15.012795  8.578740
719   2 0.0000 12.868110 15.012795 12.868110
720   2 0.0000 12.868110 15.012795 17.157480
721   2 0.0000 12.868110 19.302165  0.000000
722   2 0.0000 12.868110 19.302165  4.289370
723   2 0.0000 12.868110 19.302165  8.578740
724   2 0.0000 12.868110 19.302165 12.868110
725   2 0.0000 12.868110 19.302165 17.157480
726   2 0.0000 17.157480  2.144685 -0.000000
727   2 0.0000 17.157480  2.144685  4.289370
728   2 0.0000 17.157480  2.144685  8.578740
729   2 0.0000 17.157480  2.144685 12.868110
730   2 0.0000 17.157480  2.144685 17.157480
731   2 0.0000 17.157480  6.434055  0.000000
732   2 0.0000 17.157480  6.434055  4.289370
733   2 0.0000 17.157480  6.434055  8.578740
734   2 0.0000 17.157480  6.434055 12.868110
735   2 0.0000 17.157480  6.434055 17.157480
736   2 0.0000 17.157480 10.723425  0.000000
737   2 0.0000 17.157480 10.723425  4.289370
738   2 0.0000 17.157480 10.723425  8.578740
739   2 0.0000 17.157480 10.723425 12.868110
740   2 0.0000 17.157480 10.723425 17.157480
741   2 0.0000 17.157480 15.012795 -0.000000
742   2 0.0000 17.157480 15.012795  4.289370
743   2 0.0000 17.157480 15.012795  8.578740
744   2 0.0000 17.157480 15.012795 12.868110
745   2 0.0000 17.157480 15.012795 17.157480
746   2 0.0000 17.157480 19.302165 -0.000000
747   2 0.0000 17.157480 19.302165  4.289370
748   2 0.0000 17.157480 19.302165  8.578740
749   2 0.0000 17.157480 19.302165 12.868110
750   2 0.0000 17.157480 19.302165 17.157480
751   2 0.0000  2.144685  0.000000 -0.000000
752   2 0.0000  2.144685  0.000000  4.289370
753   2 0.0000  2.144685  0.000000  8.578740
754   2 0.0000  2.144685  0.000000 12.868110
755   2 0.0000  2.144685  0.000000 17.157480
756   2 0.0000  2.144685  4.289370 -0.000000
757   2 0.0000  2.144685  4.289370  4.289370
758   2 0.0000  2.144685  4.289370  8.578740
759   2 0.0000  2.144685  4.289370 12.868110
760   2 0.0000  2.144685  4.289370 17.157480
761   2 0.0000  2.144685  8.578740 -0.000000
762   2 0.0000  2.144685  8.578740  4.289370
763   2 0.0000  2.144685  8.578740  8.578740
764   2 0.0000  2.144685  8.578740 12.868110
765   2 0.0000  2.144685  8.578740 17.157480
766   2 0.0000  2.144685 12.868110 -0.000000
767   2 0.0000  2.144685 12.868110  4.289370
768   2 0.0000  2.144685 12.868110  8.578740
769   2 0.0000  2.144685 12.868110 12.868110
770   2 0.0000  2.144685 12.868110 17.157480
771   2 0.0000  2.144685 17.157480 -0.000000
772   2 0.0000  2.144685 17.157480  4.289370
773   2 0.0000  2.144685 17.157480  8.578740
774   2 0.0000  2.144685 17.157480 12.868110
775   2 0.0000  2.144685 17.157480 17.157480
776   2 0.0000  6.434055  0.000000  0.000000
777   2 0.0000  6.434055  0.000000  4.289370
778   2 0.0000  6.434055  0.000000  8.578740
779   2 0.0000  6.434055  0.000000 12.868110
780   2 0.0000  6.434055  0.000000 17.157480
781   2 0.0000  6.434055  4.289370  0.000000
782   2 0.0000  6.434055  4.289370  4.289370
783   2 0.0000  6.434055  4.289370  8.578740
784   2 0.0000  6.434055  4.289370 12.868110
785   2 0.0000  6.434055  4.289370 17.157480
786   2 0.0000  6.434055  8.578740  0.000000
787   2 0.0000  6.434055  8.578740  4.289370
788   2 0.0000  6.434055  8.578740  8.578740
789   2 0.0000  6.434055  8.578740 12.868110
790   2 0.0000  6.434055  8.578740 17.157480
791   2 0.0000  6.434055 12.868110  0.000000
792   2 0.0000  6.434055 12.868110  4.289370
793   2 0.0000  6.434055 12.868110  8.578740
794   2 0.0000  6.434055 12.868110 12.868110
795   2 0.0000  6.434055 12.868110 17.157480
796   2 0.0000  6.434055 17.157480  0.000000
797   2 0.0000  6.434055 17.157480  4.289370
798   2 0.0000  6.434055 17.157480  8.578740
799   2 0.0000  6.434055 17.157480 12.868110
800   2 0.0000  6.434055 17.157480 17.157480
801   2 0.0000 10.723425  0.000000 -0.000000
802   2 0.0000 10.723425  0.000000  4.289370
803   2 0.0000 10.723425  0.000000  8.578740
804   2 0.0000 10.723425  0.000000 12.868110
805   2 0.0000 10.723425  0.000000 17.157480
806   2 0.0000 10.723425  4.289370  0.000000
807   2 0.0000 10.723425  4.289370  4.289370
808   2 0.0000 10.723425  4.289370  8.578740
809   2 0.0000 10.723425  4.289370 12.868110
810   2 0.0000 10.723425  4.289370 17.157480
811   2 0.0000 10.723425  8.578740 -0.000000
812   2 0.0000 10.723425  8.578740  4.289370
813   2 0.0000 10.723425  8.578740  8.578740
814   2 0.0000 10.723425  8.578740 12.868110
815   2 0.0000 10.723425  8.578740 17.157480
816   2 0.0000 10.723425 12.868110 -0.000000
817   2 0.0000 10.723425 12.868110  4.289370
818   2 0.0000 10.723425 12.868110  8.578740
819   2 0.0000 10.723425 12.868110 12.868110
820   2 0.0000 10.723425 12.868110 17.157480
821   2 0.0000 10.723425 17.157480 -0.000000
822   2 0.0000 10.723425 17.157480  4.289370
823   2 0.0000 10.723425 17.157480  8.578740
824   2 0.0000 10.723425 17.157480 12.868110
825   2 0.0000 10.723425 17.157480 17.157480
826   2 0.0000 15.012795  0.000000 -0.000000
827   2 0.0000 15.012795  0.000000  4.289370
828   2 0.0000 15.012795  0.000000  8.578740
829   2 0.0000 15.012795  0.000000 12.868110
830   2 0.0000 15.012795  0.000000 17.157480
831   2 0.0000 15.012795  4.289370 -0.000000
832   2 0.0000 15.012795  4.289370  4.289370
833   2 0.0000 15.012795  4.289370  8.578740
834   2 0.0000 15.012795  4.289370 12.868110
835   2 0.0000 15.012795  4.289370 17.157480
836   2 0.0000 15.012795  8.578740  0.000000
837   2 0.0000 15.012795  8.578740  4.289370
838   2 0.0000 15.012795  8.578740  8.578740
839   2 0.0000 15.012795  8.578740 12.868110
840   2 0.0000 15.012795  8.578740 17.157480
841   2 0.0000 15.012795 12.868110  0.000000
842   2 0.0000 15.012795 12.868110  4.289370
843   2 0.0000 15.012795 12.868110  8.578740
844   2 0.0000 15.012795 12.868110 12.868110
845   2 0.0000 15.012795 12.868110 17.157480
846   2 0.0000 15.012795 17.157480 -0.000000
847   2 0.0000 15.012795 17.157480  4.289370
848   2 0.0000 15.012795 17.157480  8.578740
849   2 0.0000 15.012795 17.157480 12.868110
850   2 0.0000 15.012795 17.157480 17.157480
851   2 0.0000 19.302165  0.000000  0.000000
852   2 0.0000 19.302165  0.000000  4.289370
853   2 0.0000 19.302165  0.000000  8.578740
854   2 0.0000 19.302165  0.000000 12.868110
855   2 0.0000 19.302165  0.000000 17.157480
856   2 0.0000 19.302165  4.289370  0.000000
857   2 0.0000 19.302165  4.289370  4.289370
858   2 0.0000 19.302165  4.289370  8.578740
859   2 0.0000 19.302165  4.289370 12.868110
860   2 0.0000 19.302165  4.289370 17.157480
861   2 0.0000 19.302165  8.578740  0.000000
862   2 0.0000 19.302165  8.578740  4.289370
863   2 0.0000 19.302165  8.578740  8.578740
864   2 0.0000 19.302165  8.578740 12.868110
865   2 0.0000 19.302165  8.578740 17.157480
866   2 0.0000 19.302165 12.868110 -0.000000
867   2 0.0000 19.302165 12.868110  4.289370
868   2 0.0000 19.302165 12.868110  8.578740
869   2 0.0000 19.302165 12.868110 12.868110
870   2 0.0000 19.302165 12.868110 17.157480
871   2 0.0000 19.302165 17.157480 -0.000000
872   2 0.0000 19.302165 17.157480  4.289370
873   2 0.0000 19.302165 17.157480  8.578740
874   2 0.0000 19.302165 17.157480 12.868110
875   2 0.0000 19.302165 17.157480 17.157480
876   2 0.0000  2.144685  2.144685  2.144685
877   2 0.0000  2.144685  2.144685  6.434055
878   2 0.0000  2.144685  2.144685 10.723425
879   2 0.0000  2.144685  2.144685 15.012795
880   2 0.0000  2.144685  2.144685 19.302165
881   2 0.0000  2.144685  6.434055  2.144685
882   2 0.0000  2.144685  6.434055  6.434055
883   2 0.0000  2.144685  6.434055 10.723425
884   2 0.0000  2.144685  6.434055 15.012795
885   2 0.0000  2.144685  6.434055 19.302165
886   2 0.0000  2.144685 10.723425  2.144685
887   2 0.0000  2.144685 10.723425  6.434055
888   2 0.0000  2.144685 10.723425 10.723425
889   2 0.0000  2.144685 10.723425 15.012795
890   2 0.0000  2.144685 10.723425 19.302165
891   2 0.0000  2.144685 15.012795  2.144685
892   2 0.0000  2.144685 15.012795  6.434055
893   2 0.0000  2.144685 15.012795 10.723425
894   2 0.0000  2.144685 15.012795 15.012795
895   2 0.0000  2.144685 15.012795 19.302165
896   2 0.0000  2.144685 19.302165  2.144685
897   2 0.0000  2.144685 19.302165  6.434055
898   2 0.0000  2.144685 19.302165 10.723425
899   2 0.0000  2.144685 19.302165 15.012795
900   2 0.0000  2.144685 19.302165 19.302165
901   2 0.0000  6.434055  2.144685  2.144685
902   2 0.0000  6.434055  2.144685  6.434055
903   2 0.0000  6.434055  2.144685 10.723425
904   2 0.0000  6.434055  2.144685 15.012795
905   2 0.0000  6.434055  2.144685 19.302165
906   2 0.0000  6.434055  6.434055  2.144685
907   2 0.0000  6.434055  6.434055  6.434055
908   2 0.0000  6.434055  6.434055 10.723425
909   2 0.0000  6.434055  6.434055 15.012795
910   2 0.0000  6.434055  6.434055 19.302165
911   2 0.0000  6.434055 10.723425  2.144685
912   2 0.0000  6.434055 10.723425  6.434055
913   2 0.0000  6.434055 10.723425 10.723425
914   2 0.0000  6.434055 10.723425 15.012795
915   2 0.0000  6.434055 10.723425 19.302165
916   2 0.0000  6.434055 15.012795  2.144685
917   2 0.0000  6.434055 15.012795  6.434055
918   2 0.0000  6.434055 15.012795 10.723425
919   2 0.0000  6.434055 15.012795 15.012795
920   2 0.0000  6.434055 15.012795 19.302165
921   2 0.0000  6.434055 19.302165  2.144685
922   2 0.0000  6.434055 19.302165  6.434055
923   2 0.0000  6.434055 19.302165 10.723425
924   2 0.0000  6.434055 19.302165 15.012795
925   2 0.0000  6.434055 19.302165 19.302165
926   2 0.0000 10.723425  2.144685  2.144685
927   2 0.0000 10.723425  2.144685  6.434055
928   2 0.0000 10.723425  2.144685 10.723425
929   2 0.0000 10.723425  2.144685 15.012795
930   2 0.0000 10.723425  2.144685 19.302165
931   2 0.0000 10.723425  6.434055  2.144685
932   2 0.0000 10.723425  6.434055  6.434055
933   2 0.0000 10.723425  6.434055 10.723425
934   2 0.0000 10.723425  6.434055 15.012795
935   2 0.0000 10.723425  6.434055 19.302165
936   2 0.0000 10.723425 10.723425  2.144685
937   2 0.0000 10.723425 10.723425  6.434055
938   2 0.0000 10.723425 10.723425 10.723425
939   2 0.0000 10.723425 10.723425 15.012795
940   2 0.0000 10.723425 10.723425 19.302165
941   2 0.0000 10.723425 15.012795  2.144685
942   2 0.0000 10.723425 15.012795  6.434055
943   2 0.0000 10.723425 15.012795 10.723425
944   2 0.0000 10.723425 15.012795 15.012795
945   2 0.0000 10.723425 15.012795 19.302165
946   2 0.0000 10.723425 19.302165  2.144685
947   2 0.0000 10.723425 19.302165  6.434055
948   2 0.0000 10.723425 19.302165 10.723425
949   2 0.0000 10.723425 19.302165 15.012795
950   2 0.0000 10.723425 19.302165 19.302165
951   2 0.0000 15.012795  2.144685  2.144685
952   2 0.0000 15.012795  2.144685  6.434055
953   2 0.0000 15.012795  2.144685 10.723425
954   2 0.0000 15.012795  2.144685 15.012795
955   2 0.0000 15.012795  2.144685 19.302165
956   2 0.0000 15.012795  6.434055  2.144685
957   2 0.0000 15.012795  6.434055  6.434055
958   2 0.0000 15.012795  6.434055 10.723425
959   2 0.0000 15.012795  6.434055 15.012795
960   2 0.0000 15.012795  6.434055 19.302165
961   2 0.0000 15.012795 10.723425  2.144685
962   2 0.0000 15.012795 10.723425  6.434055
963   2 0.0000 15.012795 10.723425 10.723425
964   2 0.0000 15.012795 10.723425 15.012795
965   2 0.0000 15.012795 10.723425 19.302165
966   2 0.0000 15.012795 15.012795  2.144685
967   2 0.0000 15.012795 15.012795  6.434055
968   2 0.0000 15.012795 15.012795 10.723425
969   2 0.0000 15.012795 15.012795 15.012795
970   2 0.0000 15.012795 15.012795 19.302165
971   2 0.0000 15.012795 19.302165  2.144685
972   2 0.0000 15.012795 19.302165  6.434055
973   2 0.0000 15.012795 19.302165 10.723425
974   2 0.0000 15.012795 19.302165 15.012795
975   2 0.0000 15.012795 19.302165 19.302165
976   2 0.0000 19.302165  2.144685  2.144685
977   2 0.0000 19.302165  2.144685  6.434055
978   2 0.0000 19.302165  2.144685 10.723425
979   2 0.0000 19.302165  2.144685 15.012795
980   2 0.0000 19.302165  2.144685 19.302165
981   2 0.0000 19.302165  6.434055  2.144685
982   2 0.0000 19.302165  6.434055  6.434055
983   2 0.0000 19.302165  6.434055 10.723425
984   2 0.0000 19.302165  6.434055 15.012795
985   2 0.0000 19.302165  6.434055 19.302165
986   2 0.0000 19.302165 10.723425  2.144685
987   2 0.0000 19.302165 10.723425  6.434055
988   2 0.0000 19.302165 10.723425 10.723425
989   2 0.0000 19.302165 10.723425 15.012795
990   2 0.0000 19.302165 10.723425 19.302165
991   2 0.0000 19.302165 15.012795  2.144685
992   2 0.0000 19.302165 15.012795  6.434055
993   2 0.0000 19.302165 15.012795 10.723425
994   2 0.0000 19.302165 15.012795 15.012795
995   2 0.0000 19.302165 15.012795 19.302165
996   2 0.0000 19.302165 19.302165  2.144685
997   2 0.0000 19.302165 19.302165  6.434055
998   2 0.0000 19.302165 19.302165 10.723425
999   2 0.0000 19.302165 19.302165 15.012795
1000  2 0.0000 19.302165 19.302165 19.302165

