Generated by pymatgen.io.lammps.data.LammpsData

144  atoms

  4  atom types

0.000000 10.166357  xlo xhi
0.000000 17.608647  ylo yhi
0.000000 9.749555  zlo zhi

Masses

1   6.941000
2  40.078000
3  26.981539
4  18.998403

Atoms

1    1 0.0000 0.000000  2.934775 2.437389
2    1 0.0000 0.000000 11.739098 2.437389
3    1 0.0000 5.083179  2.934775 2.437389
4    1 0.0000 5.083179 11.739098 2.437389
5    1 0.0000 2.541589  7.336936 2.437389
6    1 0.0000 2.541589 16.141260 2.437389
7    1 0.0000 7.624768  7.336936 2.437389
8    1 0.0000 7.624768 16.141260 2.437389
9    1 0.0000 2.541589  1.467387 7.312166
10   1 0.0000 2.541589 10.271711 7.312166
11   1 0.0000 7.624768  1.467387 7.312166
12   1 0.0000 7.624768 10.271711 7.312166
13   1 0.0000 0.000000  5.869549 7.312166
14   1 0.0000 0.000000 14.673873 7.312166
15   1 0.0000 5.083179  5.869549 7.312166
16   1 0.0000 5.083179 14.673873 7.312166
17   2 0.0000 0.000000  0.000000 0.000000
18   2 0.0000 0.000000  8.804324 0.000000
19   2 0.0000 5.083179  0.000000 0.000000
20   2 0.0000 5.083179  8.804324 0.000000
21   2 0.0000 2.541589  4.402162 0.000000
22   2 0.0000 2.541589 13.206485 0.000000
23   2 0.0000 7.624768  4.402162 0.000000
24   2 0.0000 7.624768 13.206485 0.000000
25   2 0.0000 0.000000  0.000000 4.874777
26   2 0.0000 0.000000  8.804324 4.874777
27   2 0.0000 5.083179  0.000000 4.874777
28   2 0.0000 5.083179  8.804324 4.874777
29   2 0.0000 2.541589  4.402162 4.874777
30   2 0.0000 2.541589 13.206485 4.874777
31   2 0.0000 7.624768  4.402162 4.874777
32   2 0.0000 7.624768 13.206485 4.874777
33   3 0.0000 2.541589  1.467387 2.437389
34   3 0.0000 2.541589 10.271711 2.437389
35   3 0.0000 7.624768  1.467387 2.437389
36   3 0.0000 7.624768 10.271711 2.437389
37   3 0.0000 0.000000  5.869549 2.437389
38   3 0.0000 0.000000 14.673873 2.437389
39   3 0.0000 5.083179  5.869549 2.437389
40   3 0.0000 5.083179 14.673873 2.437389
41   3 0.0000 0.000000  2.934775 7.312166
42   3 0.0000 0.000000 11.739098 7.312166
43   3 0.0000 5.083179  2.934775 7.312166
44   3 0.0000 5.083179 11.739098 7.312166
45   3 0.0000 2.541589  7.336936 7.312166
46   3 0.0000 2.541589 16.141260 7.312166
47   3 0.0000 7.624768  7.336936 7.312166
48   3 0.0000 7.624768 16.141260 7.312166
49   4 0.0000 1.830740  0.137892 1.395444
50   4 0.0000 1.830740  8.942215 1.395444
51   4 0.0000 6.913918  0.137892 1.395444
52   4 0.0000 6.913918  8.942215 1.395444
53   4 0.0000 4.372329  4.540054 1.395444
54   4 0.0000 4.372329 13.344377 1.395444
55   4 0.0000 9.455508  4.540054 1.395444
56   4 0.0000 9.455508 13.344377 1.395444
57   4 0.0000 1.506802  2.885641 6.270222
58   4 0.0000 1.506802 11.689964 6.270222
59   4 0.0000 6.589980  2.885641 6.270222
60   4 0.0000 6.589980 11.689964 6.270222
61   4 0.0000 4.048391  7.287802 6.270222
62   4 0.0000 4.048391 16.092126 6.270222
63   4 0.0000 9.131569  7.287802 6.270222
64   4 0.0000 9.131569 16.092126 6.270222
65   4 0.0000 4.372329  4.264270 6.270222
66   4 0.0000 4.372329 13.068594 6.270222
67   4 0.0000 9.455508  4.264270 6.270222
68   4 0.0000 9.455508 13.068594 6.270222
69   4 0.0000 1.830740  8.666432 6.270222
70   4 0.0000 1.830740 17.470755 6.270222
71   4 0.0000 6.913918  8.666432 6.270222
72   4 0.0000 6.913918 17.470755 6.270222
73   4 0.0000 4.287227  1.654413 6.270222
74   4 0.0000 4.287227 10.458737 6.270222
75   4 0.0000 9.370405  1.654413 6.270222
76   4 0.0000 9.370405 10.458737 6.270222
77   4 0.0000 1.745637  6.056575 6.270222
78   4 0.0000 1.745637 14.860899 6.270222
79   4 0.0000 6.828816  6.056575 6.270222
80   4 0.0000 6.828816 14.860899 6.270222
81   4 0.0000 3.337541  2.747749 3.479333
82   4 0.0000 3.337541 11.552072 3.479333
83   4 0.0000 8.420720  2.747749 3.479333
84   4 0.0000 8.420720 11.552072 3.479333
85   4 0.0000 0.795952  7.149911 3.479333
86   4 0.0000 0.795952 15.954234 3.479333
87   4 0.0000 5.879131  7.149911 3.479333
88   4 0.0000 5.879131 15.954234 3.479333
89   4 0.0000 4.048391  1.516521 1.395444
90   4 0.0000 4.048391 10.320845 1.395444
91   4 0.0000 9.131569  1.516521 1.395444
92   4 0.0000 9.131569 10.320845 1.395444
93   4 0.0000 1.506802  5.918683 1.395444
94   4 0.0000 1.506802 14.723007 1.395444
95   4 0.0000 6.589980  5.918683 1.395444
96   4 0.0000 6.589980 14.723007 1.395444
97   4 0.0000 1.745637  2.747749 1.395444
98   4 0.0000 1.745637 11.552072 1.395444
99   4 0.0000 6.828816  2.747749 1.395444
100  4 0.0000 6.828816 11.552072 1.395444
101  4 0.0000 4.287227  7.149911 1.395444
102  4 0.0000 4.287227 15.954234 1.395444
103  4 0.0000 9.370405  7.149911 1.395444
104  4 0.0000 9.370405 15.954234 1.395444
105  4 0.0000 3.252439  0.137892 3.479333
106  4 0.0000 3.252439  8.942215 3.479333
107  4 0.0000 8.335617  0.137892 3.479333
108  4 0.0000 8.335617  8.942215 3.479333
109  4 0.0000 0.710849  4.540054 3.479333
110  4 0.0000 0.710849 13.344377 3.479333
111  4 0.0000 5.794028  4.540054 3.479333
112  4 0.0000 5.794028 13.344377 3.479333
113  4 0.0000 3.576377  2.885641 8.354111
114  4 0.0000 3.576377 11.689964 8.354111
115  4 0.0000 8.659556  2.885641 8.354111
116  4 0.0000 8.659556 11.689964 8.354111
117  4 0.0000 1.034788  7.287802 8.354111
118  4 0.0000 1.034788 16.092126 8.354111
119  4 0.0000 6.117966  7.287802 8.354111
120  4 0.0000 6.117966 16.092126 8.354111
121  4 0.0000 1.034788  1.516521 3.479333
122  4 0.0000 1.034788 10.320845 3.479333
123  4 0.0000 6.117966  1.516521 3.479333
124  4 0.0000 6.117966 10.320845 3.479333
125  4 0.0000 3.576377  5.918683 3.479333
126  4 0.0000 3.576377 14.723007 3.479333
127  4 0.0000 8.659556  5.918683 3.479333
128  4 0.0000 8.659556 14.723007 3.479333
129  4 0.0000 0.710849  4.264270 8.354111
130  4 0.0000 0.710849 13.068594 8.354111
131  4 0.0000 5.794028  4.264270 8.354111
132  4 0.0000 5.794028 13.068594 8.354111
133  4 0.0000 3.252439  8.666432 8.354111
134  4 0.0000 3.252439 17.470755 8.354111
135  4 0.0000 8.335617  8.666432 8.354111
136  4 0.0000 8.335617 17.470755 8.354111
137  4 0.0000 0.795952  1.654413 8.354111
138  4 0.0000 0.795952 10.458737 8.354111
139  4 0.0000 5.879131  1.654413 8.354111
140  4 0.0000 5.879131 10.458737 8.354111
141  4 0.0000 3.337541  6.056575 8.354111
142  4 0.0000 3.337541 14.860899 8.354111
143  4 0.0000 8.420720  6.056575 8.354111
144  4 0.0000 8.420720 14.860899 8.354111

