Generated by pymatgen.io.lammps.data.LammpsData

4125  atoms

   3  atom types

0.000000 43.962448  xlo xhi
0.000000 41.448210  ylo yhi
0.000000 35.895220  zlo zhi
-14.654148 -14.654154 -20.724107  xy xz yz

Masses

1   72.6400
2  208.9804
3   15.9994

Atoms

1     1 0.0000   2.930829   4.144817  7.179040
2     1 0.0000  -0.000002  -0.000004 14.358084
3     1 0.0000  -2.930832  -4.144826 21.537128
4     1 0.0000  -5.861663  -8.289647 28.716172
5     1 0.0000  -8.792494 -12.434469 35.895216
6     1 0.0000  -0.000001  12.434459  7.179040
7     1 0.0000  -2.930831   8.289638 14.358084
8     1 0.0000  -5.861662   4.144816 21.537128
9     1 0.0000  -8.792493  -0.000005 28.716172
10    1 0.0000 -11.723324  -4.144827 35.895216
11    1 0.0000  -2.930830  20.724101  7.179040
12    1 0.0000  -5.861661  16.579280 14.358084
13    1 0.0000  -8.792492  12.434458 21.537128
14    1 0.0000 -11.723322   8.289637 28.716172
15    1 0.0000 -14.654153   4.144815 35.895216
16    1 0.0000  -5.861660  29.013743  7.179040
17    1 0.0000  -8.792491  24.868922 14.358084
18    1 0.0000 -11.723321  20.724100 21.537128
19    1 0.0000 -14.654152  16.579279 28.716172
20    1 0.0000 -17.584983  12.434457 35.895216
21    1 0.0000  -8.792489  37.303385  7.179040
22    1 0.0000 -11.723320  33.158564 14.358084
23    1 0.0000 -14.654151  29.013742 21.537128
24    1 0.0000 -17.584982  24.868921 28.716172
25    1 0.0000 -20.515812  20.724099 35.895216
26    1 0.0000  11.723319   4.144817  7.179040
27    1 0.0000   8.792488  -0.000004 14.358084
28    1 0.0000   5.861657  -4.144826 21.537128
29    1 0.0000   2.930826  -8.289647 28.716172
30    1 0.0000  -0.000004 -12.434469 35.895216
31    1 0.0000   8.792489  12.434459  7.179040
32    1 0.0000   5.861658   8.289638 14.358084
33    1 0.0000   2.930828   4.144816 21.537128
34    1 0.0000  -0.000003  -0.000005 28.716172
35    1 0.0000  -2.930834  -4.144827 35.895216
36    1 0.0000   5.861659  20.724101  7.179040
37    1 0.0000   2.930829  16.579280 14.358084
38    1 0.0000  -0.000002  12.434458 21.537128
39    1 0.0000  -2.930833   8.289637 28.716172
40    1 0.0000  -5.861664   4.144815 35.895216
41    1 0.0000   2.930830  29.013743  7.179040
42    1 0.0000  -0.000001  24.868922 14.358084
43    1 0.0000  -2.930832  20.724100 21.537128
44    1 0.0000  -5.861663  16.579279 28.716172
45    1 0.0000  -8.792493  12.434457 35.895216
46    1 0.0000   0.000000  37.303385  7.179040
47    1 0.0000  -2.930831  33.158564 14.358084
48    1 0.0000  -5.861661  29.013742 21.537128
49    1 0.0000  -8.792492  24.868921 28.716172
50    1 0.0000 -11.723323  20.724099 35.895216
51    1 0.0000  20.515808   4.144817  7.179040
52    1 0.0000  17.584977  -0.000004 14.358084
53    1 0.0000  14.654147  -4.144826 21.537128
54    1 0.0000  11.723316  -8.289647 28.716172
55    1 0.0000   8.792485 -12.434469 35.895216
56    1 0.0000  17.584979  12.434459  7.179040
57    1 0.0000  14.654148   8.289638 14.358084
58    1 0.0000  11.723317   4.144816 21.537128
59    1 0.0000   8.792486  -0.000005 28.716172
60    1 0.0000   5.861656  -4.144827 35.895216
61    1 0.0000  14.654149  20.724101  7.179040
62    1 0.0000  11.723318  16.579280 14.358084
63    1 0.0000   8.792487  12.434458 21.537128
64    1 0.0000   5.861657   8.289637 28.716172
65    1 0.0000   2.930826   4.144815 35.895216
66    1 0.0000  11.723319  29.013743  7.179040
67    1 0.0000   8.792489  24.868922 14.358084
68    1 0.0000   5.861658  20.724100 21.537128
69    1 0.0000   2.930827  16.579279 28.716172
70    1 0.0000  -0.000004  12.434457 35.895216
71    1 0.0000   8.792490  37.303385  7.179040
72    1 0.0000   5.861659  33.158564 14.358084
73    1 0.0000   2.930828  29.013742 21.537128
74    1 0.0000  -0.000003  24.868921 28.716172
75    1 0.0000  -2.930833  20.724099 35.895216
76    1 0.0000  29.308298   4.144817  7.179040
77    1 0.0000  26.377467  -0.000004 14.358084
78    1 0.0000  23.446636  -4.144826 21.537128
79    1 0.0000  20.515806  -8.289647 28.716172
80    1 0.0000  17.584975 -12.434469 35.895216
81    1 0.0000  26.377468  12.434459  7.179040
82    1 0.0000  23.446637   8.289638 14.358084
83    1 0.0000  20.515807   4.144816 21.537128
84    1 0.0000  17.584976  -0.000005 28.716172
85    1 0.0000  14.654145  -4.144827 35.895216
86    1 0.0000  23.446639  20.724101  7.179040
87    1 0.0000  20.515808  16.579280 14.358084
88    1 0.0000  17.584977  12.434458 21.537128
89    1 0.0000  14.654146   8.289637 28.716172
90    1 0.0000  11.723315   4.144815 35.895216
91    1 0.0000  20.515809  29.013743  7.179040
92    1 0.0000  17.584978  24.868922 14.358084
93    1 0.0000  14.654147  20.724100 21.537128
94    1 0.0000  11.723317  16.579279 28.716172
95    1 0.0000   8.792486  12.434457 35.895216
96    1 0.0000  17.584979  37.303385  7.179040
97    1 0.0000  14.654149  33.158564 14.358084
98    1 0.0000  11.723318  29.013742 21.537128
99    1 0.0000   8.792487  24.868921 28.716172
100   1 0.0000   5.861656  20.724099 35.895216
101   1 0.0000  38.100787   4.144817  7.179040
102   1 0.0000  35.169957  -0.000004 14.358084
103   1 0.0000  32.239126  -4.144826 21.537128
104   1 0.0000  29.308295  -8.289647 28.716172
105   1 0.0000  26.377464 -12.434469 35.895216
106   1 0.0000  35.169958  12.434459  7.179040
107   1 0.0000  32.239127   8.289638 14.358084
108   1 0.0000  29.308296   4.144816 21.537128
109   1 0.0000  26.377465  -0.000005 28.716172
110   1 0.0000  23.446635  -4.144827 35.895216
111   1 0.0000  32.239128  20.724101  7.179040
112   1 0.0000  29.308297  16.579280 14.358084
113   1 0.0000  26.377467  12.434458 21.537128
114   1 0.0000  23.446636   8.289637 28.716172
115   1 0.0000  20.515805   4.144815 35.895216
116   1 0.0000  29.308298  29.013743  7.179040
117   1 0.0000  26.377468  24.868922 14.358084
118   1 0.0000  23.446637  20.724100 21.537128
119   1 0.0000  20.515806  16.579279 28.716172
120   1 0.0000  17.584975  12.434457 35.895216
121   1 0.0000  26.377469  37.303385  7.179040
122   1 0.0000  23.446638  33.158564 14.358084
123   1 0.0000  20.515807  29.013742 21.537128
124   1 0.0000  17.584977  24.868921 28.716172
125   1 0.0000  14.654146  20.724099 35.895216
126   2 0.0000  -2.867193   2.221459  6.148868
127   2 0.0000  -5.798024  -1.923362 13.327912
128   2 0.0000  -8.728855  -6.068184 20.506956
129   2 0.0000 -11.659685 -10.213005 27.686000
130   2 0.0000 -14.590516 -14.357826 34.865044
131   2 0.0000  -5.798023  10.511101  6.148868
132   2 0.0000  -8.728854   6.366280 13.327912
133   2 0.0000 -11.659684   2.221458 20.506956
134   2 0.0000 -14.590515  -1.923363 27.686000
135   2 0.0000 -17.521346  -6.068184 34.865044
136   2 0.0000  -8.728852  18.800743  6.148868
137   2 0.0000 -11.659683  14.655922 13.327912
138   2 0.0000 -14.590514  10.511100 20.506956
139   2 0.0000 -17.521345   6.366279 27.686000
140   2 0.0000 -20.452175   2.221458 34.865044
141   2 0.0000 -11.659682  27.090385  6.148868
142   2 0.0000 -14.590513  22.945564 13.327912
143   2 0.0000 -17.521344  18.800742 20.506956
144   2 0.0000 -20.452174  14.655921 27.686000
145   2 0.0000 -23.383005  10.511100 34.865044
146   2 0.0000 -14.590512  35.380027  6.148868
147   2 0.0000 -17.521342  31.235206 13.327912
148   2 0.0000 -20.452173  27.090384 20.506956
149   2 0.0000 -23.383004  22.945563 27.686000
150   2 0.0000 -26.313835  18.800742 34.865044
151   2 0.0000   5.925296   2.221459  6.148868
152   2 0.0000   2.994466  -1.923362 13.327912
153   2 0.0000   0.063635  -6.068184 20.506956
154   2 0.0000  -2.867196 -10.213005 27.686000
155   2 0.0000  -5.798027 -14.357826 34.865044
156   2 0.0000   2.994467  10.511101  6.148868
157   2 0.0000   0.063636   6.366280 13.327912
158   2 0.0000  -2.867195   2.221458 20.506956
159   2 0.0000  -5.798025  -1.923363 27.686000
160   2 0.0000  -8.728856  -6.068184 34.865044
161   2 0.0000   0.063637  18.800743  6.148868
162   2 0.0000  -2.867194  14.655922 13.327912
163   2 0.0000  -5.798024  10.511100 20.506956
164   2 0.0000  -8.728855   6.366279 27.686000
165   2 0.0000 -11.659686   2.221458 34.865044
166   2 0.0000  -2.867192  27.090385  6.148868
167   2 0.0000  -5.798023  22.945564 13.327912
168   2 0.0000  -8.728854  18.800742 20.506956
169   2 0.0000 -11.659685  14.655921 27.686000
170   2 0.0000 -14.590516  10.511100 34.865044
171   2 0.0000  -5.798022  35.380027  6.148868
172   2 0.0000  -8.728853  31.235206 13.327912
173   2 0.0000 -11.659684  27.090384 20.506956
174   2 0.0000 -14.590514  22.945563 27.686000
175   2 0.0000 -17.521345  18.800742 34.865044
176   2 0.0000  14.717786   2.221459  6.148868
177   2 0.0000  11.786955  -1.923362 13.327912
178   2 0.0000   8.856124  -6.068184 20.506956
179   2 0.0000   5.925294 -10.213005 27.686000
180   2 0.0000   2.994463 -14.357826 34.865044
181   2 0.0000  11.786956  10.511101  6.148868
182   2 0.0000   8.856126   6.366280 13.327912
183   2 0.0000   5.925295   2.221458 20.506956
184   2 0.0000   2.994464  -1.923363 27.686000
185   2 0.0000   0.063633  -6.068184 34.865044
186   2 0.0000   8.856127  18.800743  6.148868
187   2 0.0000   5.925296  14.655922 13.327912
188   2 0.0000   2.994465  10.511100 20.506956
189   2 0.0000   0.063634   6.366279 27.686000
190   2 0.0000  -2.867196   2.221458 34.865044
191   2 0.0000   5.925297  27.090385  6.148868
192   2 0.0000   2.994466  22.945564 13.327912
193   2 0.0000   0.063636  18.800742 20.506956
194   2 0.0000  -2.867195  14.655921 27.686000
195   2 0.0000  -5.798026  10.511100 34.865044
196   2 0.0000   2.994467  35.380027  6.148868
197   2 0.0000   0.063637  31.235206 13.327912
198   2 0.0000  -2.867194  27.090384 20.506956
199   2 0.0000  -5.798025  22.945563 27.686000
200   2 0.0000  -8.728856  18.800742 34.865044
201   2 0.0000  23.510276   2.221459  6.148868
202   2 0.0000  20.579445  -1.923362 13.327912
203   2 0.0000  17.648614  -6.068184 20.506956
204   2 0.0000  14.717783 -10.213005 27.686000
205   2 0.0000  11.786953 -14.357826 34.865044
206   2 0.0000  20.579446  10.511101  6.148868
207   2 0.0000  17.648615   6.366280 13.327912
208   2 0.0000  14.717784   2.221458 20.506956
209   2 0.0000  11.786954  -1.923363 27.686000
210   2 0.0000   8.856123  -6.068184 34.865044
211   2 0.0000  17.648616  18.800743  6.148868
212   2 0.0000  14.717786  14.655922 13.327912
213   2 0.0000  11.786955  10.511100 20.506956
214   2 0.0000   8.856124   6.366279 27.686000
215   2 0.0000   5.925293   2.221458 34.865044
216   2 0.0000  14.717787  27.090385  6.148868
217   2 0.0000  11.786956  22.945564 13.327912
218   2 0.0000   8.856125  18.800742 20.506956
219   2 0.0000   5.925294  14.655921 27.686000
220   2 0.0000   2.994464  10.511100 34.865044
221   2 0.0000  11.786957  35.380027  6.148868
222   2 0.0000   8.856126  31.235206 13.327912
223   2 0.0000   5.925295  27.090384 20.506956
224   2 0.0000   2.994465  22.945563 27.686000
225   2 0.0000   0.063634  18.800742 34.865044
226   2 0.0000  32.302765   2.221459  6.148868
227   2 0.0000  29.371934  -1.923362 13.327912
228   2 0.0000  26.441104  -6.068184 20.506956
229   2 0.0000  23.510273 -10.213005 27.686000
230   2 0.0000  20.579442 -14.357826 34.865044
231   2 0.0000  29.371935  10.511101  6.148868
232   2 0.0000  26.441105   6.366280 13.327912
233   2 0.0000  23.510274   2.221458 20.506956
234   2 0.0000  20.579443  -1.923363 27.686000
235   2 0.0000  17.648612  -6.068184 34.865044
236   2 0.0000  26.441106  18.800743  6.148868
237   2 0.0000  23.510275  14.655922 13.327912
238   2 0.0000  20.579444  10.511100 20.506956
239   2 0.0000  17.648614   6.366279 27.686000
240   2 0.0000  14.717783   2.221458 34.865044
241   2 0.0000  23.510276  27.090385  6.148868
242   2 0.0000  20.579445  22.945564 13.327912
243   2 0.0000  17.648615  18.800742 20.506956
244   2 0.0000  14.717784  14.655921 27.686000
245   2 0.0000  11.786953  10.511100 34.865044
246   2 0.0000  20.579447  35.380027  6.148868
247   2 0.0000  17.648616  31.235206 13.327912
248   2 0.0000  14.717785  27.090384 20.506956
249   2 0.0000  11.786954  22.945563 27.686000
250   2 0.0000   8.856124  18.800742 34.865044
251   2 0.0000   5.980976   2.182089  1.030190
252   2 0.0000   3.050145  -1.962733  8.209234
253   2 0.0000   0.119314  -6.107554 15.388278
254   2 0.0000  -2.811517 -10.252376 22.567322
255   2 0.0000  -5.742347 -14.397197 29.746366
256   2 0.0000   3.050146  10.471731  1.030190
257   2 0.0000   0.119315   6.326909  8.209234
258   2 0.0000  -2.811516   2.182088 15.388278
259   2 0.0000  -5.742346  -1.962734 22.567322
260   2 0.0000  -8.673177  -6.107555 29.746366
261   2 0.0000   0.119316  18.761373  1.030190
262   2 0.0000  -2.811514  14.616551  8.209234
263   2 0.0000  -5.742345  10.471730 15.388278
264   2 0.0000  -8.673176   6.326908 22.567322
265   2 0.0000 -11.604007   2.182087 29.746366
266   2 0.0000  -2.811513  27.051015  1.030190
267   2 0.0000  -5.742344  22.906193  8.209234
268   2 0.0000  -8.673175  18.761372 15.388278
269   2 0.0000 -11.604006  14.616550 22.567322
270   2 0.0000 -14.534836  10.471729 29.746366
271   2 0.0000  -5.742343  35.340657  1.030190
272   2 0.0000  -8.673174  31.195835  8.209234
273   2 0.0000 -11.604004  27.051014 15.388278
274   2 0.0000 -14.534835  22.906192 22.567322
275   2 0.0000 -17.465666  18.761371 29.746366
276   2 0.0000  14.773465   2.182089  1.030190
277   2 0.0000  11.842634  -1.962733  8.209234
278   2 0.0000   8.911804  -6.107554 15.388278
279   2 0.0000   5.980973 -10.252376 22.567322
280   2 0.0000   3.050142 -14.397197 29.746366
281   2 0.0000  11.842636  10.471731  1.030190
282   2 0.0000   8.911805   6.326909  8.209234
283   2 0.0000   5.980974   2.182088 15.388278
284   2 0.0000   3.050143  -1.962734 22.567322
285   2 0.0000   0.119313  -6.107555 29.746366
286   2 0.0000   8.911806  18.761373  1.030190
287   2 0.0000   5.980975  14.616551  8.209234
288   2 0.0000   3.050144  10.471730 15.388278
289   2 0.0000   0.119314   6.326908 22.567322
290   2 0.0000  -2.811517   2.182087 29.746366
291   2 0.0000   5.980976  27.051015  1.030190
292   2 0.0000   3.050146  22.906193  8.209234
293   2 0.0000   0.119315  18.761372 15.388278
294   2 0.0000  -2.811516  14.616550 22.567322
295   2 0.0000  -5.742347  10.471729 29.746366
296   2 0.0000   3.050147  35.340657  1.030190
297   2 0.0000   0.119316  31.195835  8.209234
298   2 0.0000  -2.811515  27.051014 15.388278
299   2 0.0000  -5.742346  22.906192 22.567322
300   2 0.0000  -8.673176  18.761371 29.746366
301   2 0.0000  23.565955   2.182089  1.030190
302   2 0.0000  20.635124  -1.962733  8.209234
303   2 0.0000  17.704293  -6.107554 15.388278
304   2 0.0000  14.773462 -10.252376 22.567322
305   2 0.0000  11.842632 -14.397197 29.746366
306   2 0.0000  20.635125  10.471731  1.030190
307   2 0.0000  17.704294   6.326909  8.209234
308   2 0.0000  14.773464   2.182088 15.388278
309   2 0.0000  11.842633  -1.962734 22.567322
310   2 0.0000   8.911802  -6.107555 29.746366
311   2 0.0000  17.704295  18.761373  1.030190
312   2 0.0000  14.773465  14.616551  8.209234
313   2 0.0000  11.842634  10.471730 15.388278
314   2 0.0000   8.911803   6.326908 22.567322
315   2 0.0000   5.980972   2.182087 29.746366
316   2 0.0000  14.773466  27.051015  1.030190
317   2 0.0000  11.842635  22.906193  8.209234
318   2 0.0000   8.911804  18.761372 15.388278
319   2 0.0000   5.980974  14.616550 22.567322
320   2 0.0000   3.050143  10.471729 29.746366
321   2 0.0000  11.842636  35.340657  1.030190
322   2 0.0000   8.911805  31.195835  8.209234
323   2 0.0000   5.980975  27.051014 15.388278
324   2 0.0000   3.050144  22.906192 22.567322
325   2 0.0000   0.119313  18.761371 29.746366
326   2 0.0000  32.358444   2.182089  1.030190
327   2 0.0000  29.427614  -1.962733  8.209234
328   2 0.0000  26.496783  -6.107554 15.388278
329   2 0.0000  23.565952 -10.252376 22.567322
330   2 0.0000  20.635121 -14.397197 29.746366
331   2 0.0000  29.427615  10.471731  1.030190
332   2 0.0000  26.496784   6.326909  8.209234
333   2 0.0000  23.565953   2.182088 15.388278
334   2 0.0000  20.635122  -1.962734 22.567322
335   2 0.0000  17.704292  -6.107555 29.746366
336   2 0.0000  26.496785  18.761373  1.030190
337   2 0.0000  23.565954  14.616551  8.209234
338   2 0.0000  20.635124  10.471730 15.388278
339   2 0.0000  17.704293   6.326908 22.567322
340   2 0.0000  14.773462   2.182087 29.746366
341   2 0.0000  23.565955  27.051015  1.030190
342   2 0.0000  20.635125  22.906193  8.209234
343   2 0.0000  17.704294  18.761372 15.388278
344   2 0.0000  14.773463  14.616550 22.567322
345   2 0.0000  11.842632  10.471729 29.746366
346   2 0.0000  20.635126  35.340657  1.030190
347   2 0.0000  17.704295  31.195835  8.209234
348   2 0.0000  14.773464  27.051014 15.388278
349   2 0.0000  11.842634  22.906192 22.567322
350   2 0.0000   8.911803  18.761371 29.746366
351   2 0.0000  41.150934   2.182089  1.030190
352   2 0.0000  38.220103  -1.962733  8.209234
353   2 0.0000  35.289272  -6.107554 15.388278
354   2 0.0000  32.358442 -10.252376 22.567322
355   2 0.0000  29.427611 -14.397197 29.746366
356   2 0.0000  38.220104  10.471731  1.030190
357   2 0.0000  35.289274   6.326909  8.209234
358   2 0.0000  32.358443   2.182088 15.388278
359   2 0.0000  29.427612  -1.962734 22.567322
360   2 0.0000  26.496781  -6.107555 29.746366
361   2 0.0000  35.289275  18.761373  1.030190
362   2 0.0000  32.358444  14.616551  8.209234
363   2 0.0000  29.427613  10.471730 15.388278
364   2 0.0000  26.496782   6.326908 22.567322
365   2 0.0000  23.565952   2.182087 29.746366
366   2 0.0000  32.358445  27.051015  1.030190
367   2 0.0000  29.427614  22.906193  8.209234
368   2 0.0000  26.496783  18.761372 15.388278
369   2 0.0000  23.565953  14.616550 22.567322
370   2 0.0000  20.635122  10.471729 29.746366
371   2 0.0000  29.427615  35.340657  1.030190
372   2 0.0000  26.496785  31.195835  8.209234
373   2 0.0000  23.565954  27.051014 15.388278
374   2 0.0000  20.635123  22.906192 22.567322
375   2 0.0000  17.704292  18.761371 29.746366
376   2 0.0000   3.680484   3.420687  3.623615
377   2 0.0000   0.749653  -0.724134 10.802659
378   2 0.0000  -2.181178  -4.868955 17.981703
379   2 0.0000  -5.112008  -9.013777 25.160747
380   2 0.0000  -8.042839 -13.158598 32.339791
381   2 0.0000   0.749654  11.710329  3.623615
382   2 0.0000  -2.181177   7.565508 10.802659
383   2 0.0000  -5.112007   3.420687 17.981703
384   2 0.0000  -8.042838  -0.724135 25.160747
385   2 0.0000 -10.973669  -4.868956 32.339791
386   2 0.0000  -2.181175  19.999971  3.623615
387   2 0.0000  -5.112006  15.855150 10.802659
388   2 0.0000  -8.042837  11.710329 17.981703
389   2 0.0000 -10.973668   7.565507 25.160747
390   2 0.0000 -13.904498   3.420686 32.339791
391   2 0.0000  -5.112005  28.289613  3.623615
392   2 0.0000  -8.042836  24.144792 10.802659
393   2 0.0000 -10.973667  19.999971 17.981703
394   2 0.0000 -13.904497  15.855149 25.160747
395   2 0.0000 -16.835328  11.710328 32.339791
396   2 0.0000  -8.042835  36.579255  3.623615
397   2 0.0000 -10.973665  32.434434 10.802659
398   2 0.0000 -13.904496  28.289613 17.981703
399   2 0.0000 -16.835327  24.144791 25.160747
400   2 0.0000 -19.766158  19.999970 32.339791
401   2 0.0000  12.472973   3.420687  3.623615
402   2 0.0000   9.542143  -0.724134 10.802659
403   2 0.0000   6.611312  -4.868955 17.981703
404   2 0.0000   3.680481  -9.013777 25.160747
405   2 0.0000   0.749650 -13.158598 32.339791
406   2 0.0000   9.542144  11.710329  3.623615
407   2 0.0000   6.611313   7.565508 10.802659
408   2 0.0000   3.680482   3.420687 17.981703
409   2 0.0000   0.749651  -0.724135 25.160747
410   2 0.0000  -2.181179  -4.868956 32.339791
411   2 0.0000   6.611314  19.999971  3.623615
412   2 0.0000   3.680483  15.855150 10.802659
413   2 0.0000   0.749653  11.710329 17.981703
414   2 0.0000  -2.181178   7.565507 25.160747
415   2 0.0000  -5.112009   3.420686 32.339791
416   2 0.0000   3.680484  28.289613  3.623615
417   2 0.0000   0.749654  24.144792 10.802659
418   2 0.0000  -2.181177  19.999971 17.981703
419   2 0.0000  -5.112008  15.855149 25.160747
420   2 0.0000  -8.042839  11.710328 32.339791
421   2 0.0000   0.749655  36.579255  3.623615
422   2 0.0000  -2.181176  32.434434 10.802659
423   2 0.0000  -5.112007  28.289613 17.981703
424   2 0.0000  -8.042837  24.144791 25.160747
425   2 0.0000 -10.973668  19.999970 32.339791
426   2 0.0000  21.265463   3.420687  3.623615
427   2 0.0000  18.334632  -0.724134 10.802659
428   2 0.0000  15.403801  -4.868955 17.981703
429   2 0.0000  12.472971  -9.013777 25.160747
430   2 0.0000   9.542140 -13.158598 32.339791
431   2 0.0000  18.334633  11.710329  3.623615
432   2 0.0000  15.403803   7.565508 10.802659
433   2 0.0000  12.472972   3.420687 17.981703
434   2 0.0000   9.542141  -0.724135 25.160747
435   2 0.0000   6.611310  -4.868956 32.339791
436   2 0.0000  15.403804  19.999971  3.623615
437   2 0.0000  12.472973  15.855150 10.802659
438   2 0.0000   9.542142  11.710329 17.981703
439   2 0.0000   6.611311   7.565507 25.160747
440   2 0.0000   3.680481   3.420686 32.339791
441   2 0.0000  12.472974  28.289613  3.623615
442   2 0.0000   9.542143  24.144792 10.802659
443   2 0.0000   6.611313  19.999971 17.981703
444   2 0.0000   3.680482  15.855149 25.160747
445   2 0.0000   0.749651  11.710328 32.339791
446   2 0.0000   9.542144  36.579255  3.623615
447   2 0.0000   6.611314  32.434434 10.802659
448   2 0.0000   3.680483  28.289613 17.981703
449   2 0.0000   0.749652  24.144791 25.160747
450   2 0.0000  -2.181179  19.999970 32.339791
451   2 0.0000  30.057953   3.420687  3.623615
452   2 0.0000  27.127122  -0.724134 10.802659
453   2 0.0000  24.196291  -4.868955 17.981703
454   2 0.0000  21.265460  -9.013777 25.160747
455   2 0.0000  18.334629 -13.158598 32.339791
456   2 0.0000  27.127123  11.710329  3.623615
457   2 0.0000  24.196292   7.565508 10.802659
458   2 0.0000  21.265461   3.420687 17.981703
459   2 0.0000  18.334631  -0.724135 25.160747
460   2 0.0000  15.403800  -4.868956 32.339791
461   2 0.0000  24.196293  19.999971  3.623615
462   2 0.0000  21.265462  15.855150 10.802659
463   2 0.0000  18.334632  11.710329 17.981703
464   2 0.0000  15.403801   7.565507 25.160747
465   2 0.0000  12.472970   3.420686 32.339791
466   2 0.0000  21.265464  28.289613  3.623615
467   2 0.0000  18.334633  24.144792 10.802659
468   2 0.0000  15.403802  19.999971 17.981703
469   2 0.0000  12.472971  15.855149 25.160747
470   2 0.0000   9.542141  11.710328 32.339791
471   2 0.0000  18.334634  36.579255  3.623615
472   2 0.0000  15.403803  32.434434 10.802659
473   2 0.0000  12.472972  28.289613 17.981703
474   2 0.0000   9.542142  24.144791 25.160747
475   2 0.0000   6.611311  19.999970 32.339791
476   2 0.0000  38.850442   3.420687  3.623615
477   2 0.0000  35.919611  -0.724134 10.802659
478   2 0.0000  32.988781  -4.868955 17.981703
479   2 0.0000  30.057950  -9.013777 25.160747
480   2 0.0000  27.127119 -13.158598 32.339791
481   2 0.0000  35.919612  11.710329  3.623615
482   2 0.0000  32.988782   7.565508 10.802659
483   2 0.0000  30.057951   3.420687 17.981703
484   2 0.0000  27.127120  -0.724135 25.160747
485   2 0.0000  24.196289  -4.868956 32.339791
486   2 0.0000  32.988783  19.999971  3.623615
487   2 0.0000  30.057952  15.855150 10.802659
488   2 0.0000  27.127121  11.710329 17.981703
489   2 0.0000  24.196291   7.565507 25.160747
490   2 0.0000  21.265460   3.420686 32.339791
491   2 0.0000  30.057953  28.289613  3.623615
492   2 0.0000  27.127122  24.144792 10.802659
493   2 0.0000  24.196292  19.999971 17.981703
494   2 0.0000  21.265461  15.855149 25.160747
495   2 0.0000  18.334630  11.710328 32.339791
496   2 0.0000  27.127124  36.579255  3.623615
497   2 0.0000  24.196293  32.434434 10.802659
498   2 0.0000  21.265462  28.289613 17.981703
499   2 0.0000  18.334631  24.144791 25.160747
500   2 0.0000  15.403801  19.999970 32.339791
501   2 0.0000  -2.181177   5.572622  2.404833
502   2 0.0000  -5.112007   1.427801  9.583877
503   2 0.0000  -8.042838  -2.717021 16.762922
504   2 0.0000 -10.973669  -6.861842 23.941966
505   2 0.0000 -13.904500 -11.006663 31.121010
506   2 0.0000  -5.112006  13.862264  2.404833
507   2 0.0000  -8.042837   9.717443  9.583877
508   2 0.0000 -10.973668   5.572621 16.762922
509   2 0.0000 -13.904499   1.427800 23.941966
510   2 0.0000 -16.835329  -2.717021 31.121010
511   2 0.0000  -8.042836  22.151906  2.404833
512   2 0.0000 -10.973667  18.007085  9.583877
513   2 0.0000 -13.904497  13.862263 16.762922
514   2 0.0000 -16.835328   9.717442 23.941966
515   2 0.0000 -19.766159   5.572621 31.121010
516   2 0.0000 -10.973666  30.441548  2.404833
517   2 0.0000 -13.904496  26.296727  9.583877
518   2 0.0000 -16.835327  22.151905 16.762922
519   2 0.0000 -19.766158  18.007084 23.941966
520   2 0.0000 -22.696989  13.862263 31.121010
521   2 0.0000 -13.904495  38.731190  2.404833
522   2 0.0000 -16.835326  34.586369  9.583877
523   2 0.0000 -19.766157  30.441547 16.762922
524   2 0.0000 -22.696987  26.296726 23.941966
525   2 0.0000 -25.627818  22.151905 31.121010
526   2 0.0000   6.611313   5.572622  2.404833
527   2 0.0000   3.680482   1.427801  9.583877
528   2 0.0000   0.749651  -2.717021 16.762922
529   2 0.0000  -2.181179  -6.861842 23.941966
530   2 0.0000  -5.112010 -11.006663 31.121010
531   2 0.0000   3.680483  13.862264  2.404833
532   2 0.0000   0.749653   9.717443  9.583877
533   2 0.0000  -2.181178   5.572621 16.762922
534   2 0.0000  -5.112009   1.427800 23.941966
535   2 0.0000  -8.042840  -2.717021 31.121010
536   2 0.0000   0.749654  22.151906  2.404833
537   2 0.0000  -2.181177  18.007085  9.583877
538   2 0.0000  -5.112008  13.862263 16.762922
539   2 0.0000  -8.042839   9.717442 23.941966
540   2 0.0000 -10.973669   5.572621 31.121010
541   2 0.0000  -2.181176  30.441548  2.404833
542   2 0.0000  -5.112007  26.296727  9.583877
543   2 0.0000  -8.042837  22.151905 16.762922
544   2 0.0000 -10.973668  18.007084 23.941966
545   2 0.0000 -13.904499  13.862263 31.121010
546   2 0.0000  -5.112006  38.731190  2.404833
547   2 0.0000  -8.042836  34.586369  9.583877
548   2 0.0000 -10.973667  30.441547 16.762922
549   2 0.0000 -13.904498  26.296726 23.941966
550   2 0.0000 -16.835329  22.151905 31.121010
551   2 0.0000  15.403803   5.572622  2.404833
552   2 0.0000  12.472972   1.427801  9.583877
553   2 0.0000   9.542141  -2.717021 16.762922
554   2 0.0000   6.611310  -6.861842 23.941966
555   2 0.0000   3.680479 -11.006663 31.121010
556   2 0.0000  12.472973  13.862264  2.404833
557   2 0.0000   9.542142   9.717443  9.583877
558   2 0.0000   6.611311   5.572621 16.762922
559   2 0.0000   3.680481   1.427800 23.941966
560   2 0.0000   0.749650  -2.717021 31.121010
561   2 0.0000   9.542143  22.151906  2.404833
562   2 0.0000   6.611312  18.007085  9.583877
563   2 0.0000   3.680482  13.862263 16.762922
564   2 0.0000   0.749651   9.717442 23.941966
565   2 0.0000  -2.181180   5.572621 31.121010
566   2 0.0000   6.611314  30.441548  2.404833
567   2 0.0000   3.680483  26.296727  9.583877
568   2 0.0000   0.749652  22.151905 16.762922
569   2 0.0000  -2.181179  18.007084 23.941966
570   2 0.0000  -5.112009  13.862263 31.121010
571   2 0.0000   3.680484  38.731190  2.404833
572   2 0.0000   0.749653  34.586369  9.583877
573   2 0.0000  -2.181178  30.441547 16.762922
574   2 0.0000  -5.112008  26.296726 23.941966
575   2 0.0000  -8.042839  22.151905 31.121010
576   2 0.0000  24.196292   5.572622  2.404833
577   2 0.0000  21.265461   1.427801  9.583877
578   2 0.0000  18.334631  -2.717021 16.762922
579   2 0.0000  15.403800  -6.861842 23.941966
580   2 0.0000  12.472969 -11.006663 31.121010
581   2 0.0000  21.265462  13.862264  2.404833
582   2 0.0000  18.334632   9.717443  9.583877
583   2 0.0000  15.403801   5.572621 16.762922
584   2 0.0000  12.472970   1.427800 23.941966
585   2 0.0000   9.542139  -2.717021 31.121010
586   2 0.0000  18.334633  22.151906  2.404833
587   2 0.0000  15.403802  18.007085  9.583877
588   2 0.0000  12.472971  13.862263 16.762922
589   2 0.0000   9.542141   9.717442 23.941966
590   2 0.0000   6.611310   5.572621 31.121010
591   2 0.0000  15.403803  30.441548  2.404833
592   2 0.0000  12.472972  26.296727  9.583877
593   2 0.0000   9.542142  22.151905 16.762922
594   2 0.0000   6.611311  18.007084 23.941966
595   2 0.0000   3.680480  13.862263 31.121010
596   2 0.0000  12.472974  38.731190  2.404833
597   2 0.0000   9.542143  34.586369  9.583877
598   2 0.0000   6.611312  30.441547 16.762922
599   2 0.0000   3.680481  26.296726 23.941966
600   2 0.0000   0.749651  22.151905 31.121010
601   2 0.0000  32.988782   5.572622  2.404833
602   2 0.0000  30.057951   1.427801  9.583877
603   2 0.0000  27.127120  -2.717021 16.762922
604   2 0.0000  24.196289  -6.861842 23.941966
605   2 0.0000  21.265459 -11.006663 31.121010
606   2 0.0000  30.057952  13.862264  2.404833
607   2 0.0000  27.127121   9.717443  9.583877
608   2 0.0000  24.196291   5.572621 16.762922
609   2 0.0000  21.265460   1.427800 23.941966
610   2 0.0000  18.334629  -2.717021 31.121010
611   2 0.0000  27.127122  22.151906  2.404833
612   2 0.0000  24.196292  18.007085  9.583877
613   2 0.0000  21.265461  13.862263 16.762922
614   2 0.0000  18.334630   9.717442 23.941966
615   2 0.0000  15.403799   5.572621 31.121010
616   2 0.0000  24.196293  30.441548  2.404833
617   2 0.0000  21.265462  26.296727  9.583877
618   2 0.0000  18.334631  22.151905 16.762922
619   2 0.0000  15.403800  18.007084 23.941966
620   2 0.0000  12.472970  13.862263 31.121010
621   2 0.0000  21.265463  38.731190  2.404833
622   2 0.0000  18.334632  34.586369  9.583877
623   2 0.0000  15.403802  30.441547 16.762922
624   2 0.0000  12.472971  26.296726 23.941966
625   2 0.0000   9.542140  22.151905 31.121010
626   2 0.0000   3.050139   6.306442  1.374658
627   2 0.0000   0.119309   2.161621  8.553702
628   2 0.0000  -2.811522  -1.983201 15.732746
629   2 0.0000  -5.742353  -6.128022 22.911790
630   2 0.0000  -8.673184 -10.272844 30.090834
631   2 0.0000   0.119310  14.596084  1.374658
632   2 0.0000  -2.811521  10.451263  8.553702
633   2 0.0000  -5.742352   6.306441 15.732746
634   2 0.0000  -8.673182   2.161620 22.911790
635   2 0.0000 -11.604013  -1.983202 30.090834
636   2 0.0000  -2.811520  22.885726  1.374658
637   2 0.0000  -5.742351  18.740905  8.553702
638   2 0.0000  -8.673181  14.596083 15.732746
639   2 0.0000 -11.604012  10.451262 22.911790
640   2 0.0000 -14.534843   6.306440 30.090834
641   2 0.0000  -5.742349  31.175368  1.374658
642   2 0.0000  -8.673180  27.030547  8.553702
643   2 0.0000 -11.604011  22.885725 15.732746
644   2 0.0000 -14.534842  18.740904 22.911790
645   2 0.0000 -17.465672  14.596082 30.090834
646   2 0.0000  -8.673179  39.465010  1.374658
647   2 0.0000 -11.604010  35.320189  8.553702
648   2 0.0000 -14.534841  31.175367 15.732746
649   2 0.0000 -17.465671  27.030546 22.911790
650   2 0.0000 -20.396502  22.885724 30.090834
651   2 0.0000  11.842629   6.306442  1.374658
652   2 0.0000   8.911798   2.161621  8.553702
653   2 0.0000   5.980967  -1.983201 15.732746
654   2 0.0000   3.050137  -6.128022 22.911790
655   2 0.0000   0.119306 -10.272844 30.090834
656   2 0.0000   8.911799  14.596084  1.374658
657   2 0.0000   5.980969  10.451263  8.553702
658   2 0.0000   3.050138   6.306441 15.732746
659   2 0.0000   0.119307   2.161620 22.911790
660   2 0.0000  -2.811524  -1.983202 30.090834
661   2 0.0000   5.980970  22.885726  1.374658
662   2 0.0000   3.050139  18.740905  8.553702
663   2 0.0000   0.119308  14.596083 15.732746
664   2 0.0000  -2.811523  10.451262 22.911790
665   2 0.0000  -5.742353   6.306440 30.090834
666   2 0.0000   3.050140  31.175368  1.374658
667   2 0.0000   0.119309  27.030547  8.553702
668   2 0.0000  -2.811521  22.885725 15.732746
669   2 0.0000  -5.742352  18.740904 22.911790
670   2 0.0000  -8.673183  14.596082 30.090834
671   2 0.0000   0.119310  39.465010  1.374658
672   2 0.0000  -2.811520  35.320189  8.553702
673   2 0.0000  -5.742351  31.175367 15.732746
674   2 0.0000  -8.673182  27.030546 22.911790
675   2 0.0000 -11.604013  22.885724 30.090834
676   2 0.0000  20.635119   6.306442  1.374658
677   2 0.0000  17.704288   2.161621  8.553702
678   2 0.0000  14.773457  -1.983201 15.732746
679   2 0.0000  11.842626  -6.128022 22.911790
680   2 0.0000   8.911796 -10.272844 30.090834
681   2 0.0000  17.704289  14.596084  1.374658
682   2 0.0000  14.773458  10.451263  8.553702
683   2 0.0000  11.842627   6.306441 15.732746
684   2 0.0000   8.911797   2.161620 22.911790
685   2 0.0000   5.980966  -1.983202 30.090834
686   2 0.0000  14.773459  22.885726  1.374658
687   2 0.0000  11.842629  18.740905  8.553702
688   2 0.0000   8.911798  14.596083 15.732746
689   2 0.0000   5.980967  10.451262 22.911790
690   2 0.0000   3.050136   6.306440 30.090834
691   2 0.0000  11.842630  31.175368  1.374658
692   2 0.0000   8.911799  27.030547  8.553702
693   2 0.0000   5.980968  22.885725 15.732746
694   2 0.0000   3.050137  18.740904 22.911790
695   2 0.0000   0.119307  14.596082 30.090834
696   2 0.0000   8.911800  39.465010  1.374658
697   2 0.0000   5.980969  35.320189  8.553702
698   2 0.0000   3.050139  31.175367 15.732746
699   2 0.0000   0.119308  27.030546 22.911790
700   2 0.0000  -2.811523  22.885724 30.090834
701   2 0.0000  29.427608   6.306442  1.374658
702   2 0.0000  26.496777   2.161621  8.553702
703   2 0.0000  23.565947  -1.983201 15.732746
704   2 0.0000  20.635116  -6.128022 22.911790
705   2 0.0000  17.704285 -10.272844 30.090834
706   2 0.0000  26.496779  14.596084  1.374658
707   2 0.0000  23.565948  10.451263  8.553702
708   2 0.0000  20.635117   6.306441 15.732746
709   2 0.0000  17.704286   2.161620 22.911790
710   2 0.0000  14.773455  -1.983202 30.090834
711   2 0.0000  23.565949  22.885726  1.374658
712   2 0.0000  20.635118  18.740905  8.553702
713   2 0.0000  17.704287  14.596083 15.732746
714   2 0.0000  14.773457  10.451262 22.911790
715   2 0.0000  11.842626   6.306440 30.090834
716   2 0.0000  20.635119  31.175368  1.374658
717   2 0.0000  17.704288  27.030547  8.553702
718   2 0.0000  14.773458  22.885725 15.732746
719   2 0.0000  11.842627  18.740904 22.911790
720   2 0.0000   8.911796  14.596082 30.090834
721   2 0.0000  17.704290  39.465010  1.374658
722   2 0.0000  14.773459  35.320189  8.553702
723   2 0.0000  11.842628  31.175367 15.732746
724   2 0.0000   8.911797  27.030546 22.911790
725   2 0.0000   5.980967  22.885724 30.090834
726   2 0.0000  38.220098   6.306442  1.374658
727   2 0.0000  35.289267   2.161621  8.553702
728   2 0.0000  32.358436  -1.983201 15.732746
729   2 0.0000  29.427605  -6.128022 22.911790
730   2 0.0000  26.496775 -10.272844 30.090834
731   2 0.0000  35.289268  14.596084  1.374658
732   2 0.0000  32.358437  10.451263  8.553702
733   2 0.0000  29.427607   6.306441 15.732746
734   2 0.0000  26.496776   2.161620 22.911790
735   2 0.0000  23.565945  -1.983202 30.090834
736   2 0.0000  32.358438  22.885726  1.374658
737   2 0.0000  29.427608  18.740905  8.553702
738   2 0.0000  26.496777  14.596083 15.732746
739   2 0.0000  23.565946  10.451262 22.911790
740   2 0.0000  20.635115   6.306440 30.090834
741   2 0.0000  29.427609  31.175368  1.374658
742   2 0.0000  26.496778  27.030547  8.553702
743   2 0.0000  23.565947  22.885725 15.732746
744   2 0.0000  20.635117  18.740904 22.911790
745   2 0.0000  17.704286  14.596082 30.090834
746   2 0.0000  26.496779  39.465010  1.374658
747   2 0.0000  23.565948  35.320189  8.553702
748   2 0.0000  20.635118  31.175367 15.732746
749   2 0.0000  17.704287  27.030546 22.911790
750   2 0.0000  14.773456  22.885724 30.090834
751   2 0.0000   0.749659   3.441156  1.150593
752   2 0.0000  -2.181171  -0.703665  8.329637
753   2 0.0000  -5.112002  -4.848486 15.508681
754   2 0.0000  -8.042833  -8.993308 22.687725
755   2 0.0000 -10.973664 -13.138129 29.866769
756   2 0.0000  -2.181170  11.730798  1.150593
757   2 0.0000  -5.112001   7.585977  8.329637
758   2 0.0000  -8.042832   3.441156 15.508681
759   2 0.0000 -10.973662  -0.703666 22.687725
760   2 0.0000 -13.904493  -4.848487 29.866769
761   2 0.0000  -5.112000  20.020440  1.150593
762   2 0.0000  -8.042831  15.875619  8.329637
763   2 0.0000 -10.973661  11.730798 15.508681
764   2 0.0000 -13.904492   7.585976 22.687725
765   2 0.0000 -16.835323   3.441155 29.866769
766   2 0.0000  -8.042829  28.310082  1.150593
767   2 0.0000 -10.973660  24.165261  8.329637
768   2 0.0000 -13.904491  20.020440 15.508681
769   2 0.0000 -16.835322  15.875618 22.687725
770   2 0.0000 -19.766152  11.730797 29.866769
771   2 0.0000 -10.973659  36.599724  1.150593
772   2 0.0000 -13.904490  32.454903  8.329637
773   2 0.0000 -16.835321  28.310082 15.508681
774   2 0.0000 -19.766151  24.165260 22.687725
775   2 0.0000 -22.696982  20.020439 29.866769
776   2 0.0000   9.542149   3.441156  1.150593
777   2 0.0000   6.611318  -0.703665  8.329637
778   2 0.0000   3.680488  -4.848486 15.508681
779   2 0.0000   0.749657  -8.993308 22.687725
780   2 0.0000  -2.181174 -13.138129 29.866769
781   2 0.0000   6.611319  11.730798  1.150593
782   2 0.0000   3.680489   7.585977  8.329637
783   2 0.0000   0.749658   3.441156 15.508681
784   2 0.0000  -2.181173  -0.703666 22.687725
785   2 0.0000  -5.112004  -4.848487 29.866769
786   2 0.0000   3.680490  20.020440  1.150593
787   2 0.0000   0.749659  15.875619  8.329637
788   2 0.0000  -2.181172  11.730798 15.508681
789   2 0.0000  -5.112003   7.585976 22.687725
790   2 0.0000  -8.042833   3.441155 29.866769
791   2 0.0000   0.749660  28.310082  1.150593
792   2 0.0000  -2.181171  24.165261  8.329637
793   2 0.0000  -5.112001  20.020440 15.508681
794   2 0.0000  -8.042832  15.875618 22.687725
795   2 0.0000 -10.973663  11.730797 29.866769
796   2 0.0000  -2.181169  36.599724  1.150593
797   2 0.0000  -5.112000  32.454903  8.329637
798   2 0.0000  -8.042831  28.310082 15.508681
799   2 0.0000 -10.973662  24.165260 22.687725
800   2 0.0000 -13.904493  20.020439 29.866769
801   2 0.0000  18.334639   3.441156  1.150593
802   2 0.0000  15.403808  -0.703665  8.329637
803   2 0.0000  12.472977  -4.848486 15.508681
804   2 0.0000   9.542146  -8.993308 22.687725
805   2 0.0000   6.611316 -13.138129 29.866769
806   2 0.0000  15.403809  11.730798  1.150593
807   2 0.0000  12.472978   7.585977  8.329637
808   2 0.0000   9.542147   3.441156 15.508681
809   2 0.0000   6.611317  -0.703666 22.687725
810   2 0.0000   3.680486  -4.848487 29.866769
811   2 0.0000  12.472979  20.020440  1.150593
812   2 0.0000   9.542149  15.875619  8.329637
813   2 0.0000   6.611318  11.730798 15.508681
814   2 0.0000   3.680487   7.585976 22.687725
815   2 0.0000   0.749656   3.441155 29.866769
816   2 0.0000   9.542150  28.310082  1.150593
817   2 0.0000   6.611319  24.165261  8.329637
818   2 0.0000   3.680488  20.020440 15.508681
819   2 0.0000   0.749657  15.875618 22.687725
820   2 0.0000  -2.181173  11.730797 29.866769
821   2 0.0000   6.611320  36.599724  1.150593
822   2 0.0000   3.680489  32.454903  8.329637
823   2 0.0000   0.749659  28.310082 15.508681
824   2 0.0000  -2.181172  24.165260 22.687725
825   2 0.0000  -5.112003  20.020439 29.866769
826   2 0.0000  27.127128   3.441156  1.150593
827   2 0.0000  24.196297  -0.703665  8.329637
828   2 0.0000  21.265467  -4.848486 15.508681
829   2 0.0000  18.334636  -8.993308 22.687725
830   2 0.0000  15.403805 -13.138129 29.866769
831   2 0.0000  24.196299  11.730798  1.150593
832   2 0.0000  21.265468   7.585977  8.329637
833   2 0.0000  18.334637   3.441156 15.508681
834   2 0.0000  15.403806  -0.703666 22.687725
835   2 0.0000  12.472976  -4.848487 29.866769
836   2 0.0000  21.265469  20.020440  1.150593
837   2 0.0000  18.334638  15.875619  8.329637
838   2 0.0000  15.403807  11.730798 15.508681
839   2 0.0000  12.472977   7.585976 22.687725
840   2 0.0000   9.542146   3.441155 29.866769
841   2 0.0000  18.334639  28.310082  1.150593
842   2 0.0000  15.403809  24.165261  8.329637
843   2 0.0000  12.472978  20.020440 15.508681
844   2 0.0000   9.542147  15.875618 22.687725
845   2 0.0000   6.611316  11.730797 29.866769
846   2 0.0000  15.403810  36.599724  1.150593
847   2 0.0000  12.472979  32.454903  8.329637
848   2 0.0000   9.542148  28.310082 15.508681
849   2 0.0000   6.611317  24.165260 22.687725
850   2 0.0000   3.680487  20.020439 29.866769
851   2 0.0000  35.919618   3.441156  1.150593
852   2 0.0000  32.988787  -0.703665  8.329637
853   2 0.0000  30.057956  -4.848486 15.508681
854   2 0.0000  27.127125  -8.993308 22.687725
855   2 0.0000  24.196295 -13.138129 29.866769
856   2 0.0000  32.988788  11.730798  1.150593
857   2 0.0000  30.057957   7.585977  8.329637
858   2 0.0000  27.127127   3.441156 15.508681
859   2 0.0000  24.196296  -0.703666 22.687725
860   2 0.0000  21.265465  -4.848487 29.866769
861   2 0.0000  30.057958  20.020440  1.150593
862   2 0.0000  27.127128  15.875619  8.329637
863   2 0.0000  24.196297  11.730798 15.508681
864   2 0.0000  21.265466   7.585976 22.687725
865   2 0.0000  18.334635   3.441155 29.866769
866   2 0.0000  27.127129  28.310082  1.150593
867   2 0.0000  24.196298  24.165261  8.329637
868   2 0.0000  21.265467  20.020440 15.508681
869   2 0.0000  18.334637  15.875618 22.687725
870   2 0.0000  15.403806  11.730797 29.866769
871   2 0.0000  24.196299  36.599724  1.150593
872   2 0.0000  21.265468  32.454903  8.329637
873   2 0.0000  18.334638  28.310082 15.508681
874   2 0.0000  15.403807  24.165260 22.687725
875   2 0.0000  12.472976  20.020439 29.866769
876   2 0.0000   2.994467   0.069524  2.180768
877   2 0.0000   0.063636  -4.075298  9.359812
878   2 0.0000  -2.867195  -8.220119 16.538856
879   2 0.0000  -5.798025 -12.364941 23.717900
880   2 0.0000  -8.728856 -16.509762 30.896944
881   2 0.0000   0.063637   8.359166  2.180768
882   2 0.0000  -2.867194   4.214344  9.359812
883   2 0.0000  -5.798024   0.069523 16.538856
884   2 0.0000  -8.728855  -4.075299 23.717900
885   2 0.0000 -11.659686  -8.220120 30.896944
886   2 0.0000  -2.867192  16.648808  2.180768
887   2 0.0000  -5.798023  12.503986  9.359812
888   2 0.0000  -8.728854   8.359165 16.538856
889   2 0.0000 -11.659685   4.214343 23.717900
890   2 0.0000 -14.590515   0.069522 30.896944
891   2 0.0000  -5.798022  24.938450  2.180768
892   2 0.0000  -8.728853  20.793628  9.359812
893   2 0.0000 -11.659684  16.648807 16.538856
894   2 0.0000 -14.590514  12.503985 23.717900
895   2 0.0000 -17.521345   8.359164 30.896944
896   2 0.0000  -8.728852  33.228092  2.180768
897   2 0.0000 -11.659682  29.083270  9.359812
898   2 0.0000 -14.590513  24.938449 16.538856
899   2 0.0000 -17.521344  20.793627 23.717900
900   2 0.0000 -20.452175  16.648806 30.896944
901   2 0.0000  11.786956   0.069524  2.180768
902   2 0.0000   8.856126  -4.075298  9.359812
903   2 0.0000   5.925295  -8.220119 16.538856
904   2 0.0000   2.994464 -12.364941 23.717900
905   2 0.0000   0.063633 -16.509762 30.896944
906   2 0.0000   8.856127   8.359166  2.180768
907   2 0.0000   5.925296   4.214344  9.359812
908   2 0.0000   2.994465   0.069523 16.538856
909   2 0.0000   0.063634  -4.075299 23.717900
910   2 0.0000  -2.867196  -8.220120 30.896944
911   2 0.0000   5.925297  16.648808  2.180768
912   2 0.0000   2.994466  12.503986  9.359812
913   2 0.0000   0.063636   8.359165 16.538856
914   2 0.0000  -2.867195   4.214343 23.717900
915   2 0.0000  -5.798026   0.069522 30.896944
916   2 0.0000   2.994467  24.938450  2.180768
917   2 0.0000   0.063637  20.793628  9.359812
918   2 0.0000  -2.867194  16.648807 16.538856
919   2 0.0000  -5.798025  12.503985 23.717900
920   2 0.0000  -8.728856   8.359164 30.896944
921   2 0.0000   0.063638  33.228092  2.180768
922   2 0.0000  -2.867193  29.083270  9.359812
923   2 0.0000  -5.798024  24.938449 16.538856
924   2 0.0000  -8.728854  20.793627 23.717900
925   2 0.0000 -11.659685  16.648806 30.896944
926   2 0.0000  20.579446   0.069524  2.180768
927   2 0.0000  17.648615  -4.075298  9.359812
928   2 0.0000  14.717784  -8.220119 16.538856
929   2 0.0000  11.786954 -12.364941 23.717900
930   2 0.0000   8.856123 -16.509762 30.896944
931   2 0.0000  17.648616   8.359166  2.180768
932   2 0.0000  14.717786   4.214344  9.359812
933   2 0.0000  11.786955   0.069523 16.538856
934   2 0.0000   8.856124  -4.075299 23.717900
935   2 0.0000   5.925293  -8.220120 30.896944
936   2 0.0000  14.717787  16.648808  2.180768
937   2 0.0000  11.786956  12.503986  9.359812
938   2 0.0000   8.856125   8.359165 16.538856
939   2 0.0000   5.925294   4.214343 23.717900
940   2 0.0000   2.994464   0.069522 30.896944
941   2 0.0000  11.786957  24.938450  2.180768
942   2 0.0000   8.856126  20.793628  9.359812
943   2 0.0000   5.925296  16.648807 16.538856
944   2 0.0000   2.994465  12.503985 23.717900
945   2 0.0000   0.063634   8.359164 30.896944
946   2 0.0000   8.856127  33.228092  2.180768
947   2 0.0000   5.925297  29.083270  9.359812
948   2 0.0000   2.994466  24.938449 16.538856
949   2 0.0000   0.063635  20.793627 23.717900
950   2 0.0000  -2.867196  16.648806 30.896944
951   2 0.0000  29.371936   0.069524  2.180768
952   2 0.0000  26.441105  -4.075298  9.359812
953   2 0.0000  23.510274  -8.220119 16.538856
954   2 0.0000  20.579443 -12.364941 23.717900
955   2 0.0000  17.648612 -16.509762 30.896944
956   2 0.0000  26.441106   8.359166  2.180768
957   2 0.0000  23.510275   4.214344  9.359812
958   2 0.0000  20.579444   0.069523 16.538856
959   2 0.0000  17.648614  -4.075299 23.717900
960   2 0.0000  14.717783  -8.220120 30.896944
961   2 0.0000  23.510276  16.648808  2.180768
962   2 0.0000  20.579445  12.503986  9.359812
963   2 0.0000  17.648615   8.359165 16.538856
964   2 0.0000  14.717784   4.214343 23.717900
965   2 0.0000  11.786953   0.069522 30.896944
966   2 0.0000  20.579447  24.938450  2.180768
967   2 0.0000  17.648616  20.793628  9.359812
968   2 0.0000  14.717785  16.648807 16.538856
969   2 0.0000  11.786954  12.503985 23.717900
970   2 0.0000   8.856124   8.359164 30.896944
971   2 0.0000  17.648617  33.228092  2.180768
972   2 0.0000  14.717786  29.083270  9.359812
973   2 0.0000  11.786955  24.938449 16.538856
974   2 0.0000   8.856125  20.793627 23.717900
975   2 0.0000   5.925294  16.648806 30.896944
976   2 0.0000  38.164425   0.069524  2.180768
977   2 0.0000  35.233594  -4.075298  9.359812
978   2 0.0000  32.302764  -8.220119 16.538856
979   2 0.0000  29.371933 -12.364941 23.717900
980   2 0.0000  26.441102 -16.509762 30.896944
981   2 0.0000  35.233595   8.359166  2.180768
982   2 0.0000  32.302765   4.214344  9.359812
983   2 0.0000  29.371934   0.069523 16.538856
984   2 0.0000  26.441103  -4.075299 23.717900
985   2 0.0000  23.510272  -8.220120 30.896944
986   2 0.0000  32.302766  16.648808  2.180768
987   2 0.0000  29.371935  12.503986  9.359812
988   2 0.0000  26.441104   8.359165 16.538856
989   2 0.0000  23.510274   4.214343 23.717900
990   2 0.0000  20.579443   0.069522 30.896944
991   2 0.0000  29.371936  24.938450  2.180768
992   2 0.0000  26.441105  20.793628  9.359812
993   2 0.0000  23.510275  16.648807 16.538856
994   2 0.0000  20.579444  12.503985 23.717900
995   2 0.0000  17.648613   8.359164 30.896944
996   2 0.0000  26.441107  33.228092  2.180768
997   2 0.0000  23.510276  29.083270  9.359812
998   2 0.0000  20.579445  24.938449 16.538856
999   2 0.0000  17.648614  20.793627 23.717900
1000  2 0.0000  14.717784  16.648806 30.896944
1001  2 0.0000   0.063639  -2.290984  6.028452
1002  2 0.0000  -2.867192  -6.435805 13.207496
1003  2 0.0000  -5.798022 -10.580627 20.386540
1004  2 0.0000  -8.728853 -14.725448 27.565584
1005  2 0.0000 -11.659684 -18.870270 34.744628
1006  2 0.0000  -2.867190   5.998658  6.028452
1007  2 0.0000  -5.798021   1.853837 13.207496
1008  2 0.0000  -8.728852  -2.290985 20.386540
1009  2 0.0000 -11.659683  -6.435806 27.565584
1010  2 0.0000 -14.590514 -10.580628 34.744628
1011  2 0.0000  -5.798020  14.288300  6.028452
1012  2 0.0000  -8.728851  10.143479 13.207496
1013  2 0.0000 -11.659682   5.998657 20.386540
1014  2 0.0000 -14.590512   1.853836 27.565584
1015  2 0.0000 -17.521343  -2.290986 34.744628
1016  2 0.0000  -8.728850  22.577942  6.028452
1017  2 0.0000 -11.659681  18.433121 13.207496
1018  2 0.0000 -14.590511  14.288299 20.386540
1019  2 0.0000 -17.521342  10.143478 27.565584
1020  2 0.0000 -20.452173   5.998656 34.744628
1021  2 0.0000 -11.659679  30.867584  6.028452
1022  2 0.0000 -14.590510  26.722763 13.207496
1023  2 0.0000 -17.521341  22.577941 20.386540
1024  2 0.0000 -20.452172  18.433120 27.565584
1025  2 0.0000 -23.383002  14.288298 34.744628
1026  2 0.0000   8.856129  -2.290984  6.028452
1027  2 0.0000   5.925298  -6.435805 13.207496
1028  2 0.0000   2.994467 -10.580627 20.386540
1029  2 0.0000   0.063636 -14.725448 27.565584
1030  2 0.0000  -2.867194 -18.870270 34.744628
1031  2 0.0000   5.925299   5.998658  6.028452
1032  2 0.0000   2.994468   1.853837 13.207496
1033  2 0.0000   0.063638  -2.290985 20.386540
1034  2 0.0000  -2.867193  -6.435806 27.565584
1035  2 0.0000  -5.798024 -10.580628 34.744628
1036  2 0.0000   2.994469  14.288300  6.028452
1037  2 0.0000   0.063639  10.143479 13.207496
1038  2 0.0000  -2.867192   5.998657 20.386540
1039  2 0.0000  -5.798023   1.853836 27.565584
1040  2 0.0000  -8.728854  -2.290986 34.744628
1041  2 0.0000   0.063640  22.577942  6.028452
1042  2 0.0000  -2.867191  18.433121 13.207496
1043  2 0.0000  -5.798022  14.288299 20.386540
1044  2 0.0000  -8.728852  10.143478 27.565584
1045  2 0.0000 -11.659683   5.998656 34.744628
1046  2 0.0000  -2.867190  30.867584  6.028452
1047  2 0.0000  -5.798021  26.722763 13.207496
1048  2 0.0000  -8.728851  22.577941 20.386540
1049  2 0.0000 -11.659682  18.433120 27.565584
1050  2 0.0000 -14.590513  14.288298 34.744628
1051  2 0.0000  17.648618  -2.290984  6.028452
1052  2 0.0000  14.717788  -6.435805 13.207496
1053  2 0.0000  11.786957 -10.580627 20.386540
1054  2 0.0000   8.856126 -14.725448 27.565584
1055  2 0.0000   5.925295 -18.870270 34.744628
1056  2 0.0000  14.717789   5.998658  6.028452
1057  2 0.0000  11.786958   1.853837 13.207496
1058  2 0.0000   8.856127  -2.290985 20.386540
1059  2 0.0000   5.925296  -6.435806 27.565584
1060  2 0.0000   2.994466 -10.580628 34.744628
1061  2 0.0000  11.786959  14.288300  6.028452
1062  2 0.0000   8.856128  10.143479 13.207496
1063  2 0.0000   5.925297   5.998657 20.386540
1064  2 0.0000   2.994467   1.853836 27.565584
1065  2 0.0000   0.063636  -2.290986 34.744628
1066  2 0.0000   8.856129  22.577942  6.028452
1067  2 0.0000   5.925299  18.433121 13.207496
1068  2 0.0000   2.994468  14.288299 20.386540
1069  2 0.0000   0.063637  10.143478 27.565584
1070  2 0.0000  -2.867194   5.998656 34.744628
1071  2 0.0000   5.925300  30.867584  6.028452
1072  2 0.0000   2.994469  26.722763 13.207496
1073  2 0.0000   0.063638  22.577941 20.386540
1074  2 0.0000  -2.867193  18.433120 27.565584
1075  2 0.0000  -5.798023  14.288298 34.744628
1076  2 0.0000  26.441108  -2.290984  6.028452
1077  2 0.0000  23.510277  -6.435805 13.207496
1078  2 0.0000  20.579446 -10.580627 20.386540
1079  2 0.0000  17.648616 -14.725448 27.565584
1080  2 0.0000  14.717785 -18.870270 34.744628
1081  2 0.0000  23.510278   5.998658  6.028452
1082  2 0.0000  20.579447   1.853837 13.207496
1083  2 0.0000  17.648617  -2.290985 20.386540
1084  2 0.0000  14.717786  -6.435806 27.565584
1085  2 0.0000  11.786955 -10.580628 34.744628
1086  2 0.0000  20.579449  14.288300  6.028452
1087  2 0.0000  17.648618  10.143479 13.207496
1088  2 0.0000  14.717787   5.998657 20.386540
1089  2 0.0000  11.786956   1.853836 27.565584
1090  2 0.0000   8.856126  -2.290986 34.744628
1091  2 0.0000  17.648619  22.577942  6.028452
1092  2 0.0000  14.717788  18.433121 13.207496
1093  2 0.0000  11.786957  14.288299 20.386540
1094  2 0.0000   8.856127  10.143478 27.565584
1095  2 0.0000   5.925296   5.998656 34.744628
1096  2 0.0000  14.717789  30.867584  6.028452
1097  2 0.0000  11.786959  26.722763 13.207496
1098  2 0.0000   8.856128  22.577941 20.386540
1099  2 0.0000   5.925297  18.433120 27.565584
1100  2 0.0000   2.994466  14.288298 34.744628
1101  2 0.0000  35.233597  -2.290984  6.028452
1102  2 0.0000  32.302767  -6.435805 13.207496
1103  2 0.0000  29.371936 -10.580627 20.386540
1104  2 0.0000  26.441105 -14.725448 27.565584
1105  2 0.0000  23.510274 -18.870270 34.744628
1106  2 0.0000  32.302768   5.998658  6.028452
1107  2 0.0000  29.371937   1.853837 13.207496
1108  2 0.0000  26.441106  -2.290985 20.386540
1109  2 0.0000  23.510276  -6.435806 27.565584
1110  2 0.0000  20.579445 -10.580628 34.744628
1111  2 0.0000  29.371938  14.288300  6.028452
1112  2 0.0000  26.441107  10.143479 13.207496
1113  2 0.0000  23.510277   5.998657 20.386540
1114  2 0.0000  20.579446   1.853836 27.565584
1115  2 0.0000  17.648615  -2.290986 34.744628
1116  2 0.0000  26.441109  22.577942  6.028452
1117  2 0.0000  23.510278  18.433121 13.207496
1118  2 0.0000  20.579447  14.288299 20.386540
1119  2 0.0000  17.648616  10.143478 27.565584
1120  2 0.0000  14.717785   5.998656 34.744628
1121  2 0.0000  23.510279  30.867584  6.028452
1122  2 0.0000  20.579448  26.722763 13.207496
1123  2 0.0000  17.648617  22.577941 20.386540
1124  2 0.0000  14.717787  18.433120 27.565584
1125  2 0.0000  11.786956  14.288298 34.744628
1126  2 0.0000   0.119315   3.945941  4.774199
1127  2 0.0000  -2.811516  -0.198880 11.953243
1128  2 0.0000  -5.742347  -4.343702 19.132287
1129  2 0.0000  -8.673177  -8.488523 26.311331
1130  2 0.0000 -11.604008 -12.633345 33.490375
1131  2 0.0000  -2.811515  12.235583  4.774199
1132  2 0.0000  -5.742346   8.090762 11.953243
1133  2 0.0000  -8.673176   3.945940 19.132287
1134  2 0.0000 -11.604007  -0.198881 26.311331
1135  2 0.0000 -14.534838  -4.343703 33.490375
1136  2 0.0000  -5.742344  20.525225  4.774199
1137  2 0.0000  -8.673175  16.380404 11.953243
1138  2 0.0000 -11.604006  12.235582 19.132287
1139  2 0.0000 -14.534837   8.090761 26.311331
1140  2 0.0000 -17.465668   3.945939 33.490375
1141  2 0.0000  -8.673174  28.814867  4.774199
1142  2 0.0000 -11.604005  24.670046 11.953243
1143  2 0.0000 -14.534836  20.525224 19.132287
1144  2 0.0000 -17.465666  16.380403 26.311331
1145  2 0.0000 -20.396497  12.235581 33.490375
1146  2 0.0000 -11.604004  37.104509  4.774199
1147  2 0.0000 -14.534835  32.959688 11.953243
1148  2 0.0000 -17.465665  28.814866 19.132287
1149  2 0.0000 -20.396496  24.670045 26.311331
1150  2 0.0000 -23.327327  20.525223 33.490375
1151  2 0.0000   8.911804   3.945941  4.774199
1152  2 0.0000   5.980974  -0.198880 11.953243
1153  2 0.0000   3.050143  -4.343702 19.132287
1154  2 0.0000   0.119312  -8.488523 26.311331
1155  2 0.0000  -2.811519 -12.633345 33.490375
1156  2 0.0000   5.980975  12.235583  4.774199
1157  2 0.0000   3.050144   8.090762 11.953243
1158  2 0.0000   0.119313   3.945940 19.132287
1159  2 0.0000  -2.811518  -0.198881 26.311331
1160  2 0.0000  -5.742348  -4.343703 33.490375
1161  2 0.0000   3.050145  20.525225  4.774199
1162  2 0.0000   0.119314  16.380404 11.953243
1163  2 0.0000  -2.811516  12.235582 19.132287
1164  2 0.0000  -5.742347   8.090761 26.311331
1165  2 0.0000  -8.673178   3.945939 33.490375
1166  2 0.0000   0.119315  28.814867  4.774199
1167  2 0.0000  -2.811515  24.670046 11.953243
1168  2 0.0000  -5.742346  20.525224 19.132287
1169  2 0.0000  -8.673177  16.380403 26.311331
1170  2 0.0000 -11.604008  12.235581 33.490375
1171  2 0.0000  -2.811514  37.104509  4.774199
1172  2 0.0000  -5.742345  32.959688 11.953243
1173  2 0.0000  -8.673176  28.814866 19.132287
1174  2 0.0000 -11.604006  24.670045 26.311331
1175  2 0.0000 -14.534837  20.525223 33.490375
1176  2 0.0000  17.704294   3.945941  4.774199
1177  2 0.0000  14.773463  -0.198880 11.953243
1178  2 0.0000  11.842632  -4.343702 19.132287
1179  2 0.0000   8.911802  -8.488523 26.311331
1180  2 0.0000   5.980971 -12.633345 33.490375
1181  2 0.0000  14.773464  12.235583  4.774199
1182  2 0.0000  11.842634   8.090762 11.953243
1183  2 0.0000   8.911803   3.945940 19.132287
1184  2 0.0000   5.980972  -0.198881 26.311331
1185  2 0.0000   3.050141  -4.343703 33.490375
1186  2 0.0000  11.842635  20.525225  4.774199
1187  2 0.0000   8.911804  16.380404 11.953243
1188  2 0.0000   5.980973  12.235582 19.132287
1189  2 0.0000   3.050142   8.090761 26.311331
1190  2 0.0000   0.119312   3.945939 33.490375
1191  2 0.0000   8.911805  28.814867  4.774199
1192  2 0.0000   5.980974  24.670046 11.953243
1193  2 0.0000   3.050144  20.525224 19.132287
1194  2 0.0000   0.119313  16.380403 26.311331
1195  2 0.0000  -2.811518  12.235581 33.490375
1196  2 0.0000   5.980975  37.104509  4.774199
1197  2 0.0000   3.050145  32.959688 11.953243
1198  2 0.0000   0.119314  28.814866 19.132287
1199  2 0.0000  -2.811517  24.670045 26.311331
1200  2 0.0000  -5.742348  20.525223 33.490375
1201  2 0.0000  26.496783   3.945941  4.774199
1202  2 0.0000  23.565953  -0.198880 11.953243
1203  2 0.0000  20.635122  -4.343702 19.132287
1204  2 0.0000  17.704291  -8.488523 26.311331
1205  2 0.0000  14.773460 -12.633345 33.490375
1206  2 0.0000  23.565954  12.235583  4.774199
1207  2 0.0000  20.635123   8.090762 11.953243
1208  2 0.0000  17.704292   3.945940 19.132287
1209  2 0.0000  14.773462  -0.198881 26.311331
1210  2 0.0000  11.842631  -4.343703 33.490375
1211  2 0.0000  20.635124  20.525225  4.774199
1212  2 0.0000  17.704293  16.380404 11.953243
1213  2 0.0000  14.773463  12.235582 19.132287
1214  2 0.0000  11.842632   8.090761 26.311331
1215  2 0.0000   8.911801   3.945939 33.490375
1216  2 0.0000  17.704295  28.814867  4.774199
1217  2 0.0000  14.773464  24.670046 11.953243
1218  2 0.0000  11.842633  20.525224 19.132287
1219  2 0.0000   8.911802  16.380403 26.311331
1220  2 0.0000   5.980972  12.235581 33.490375
1221  2 0.0000  14.773465  37.104509  4.774199
1222  2 0.0000  11.842634  32.959688 11.953243
1223  2 0.0000   8.911803  28.814866 19.132287
1224  2 0.0000   5.980973  24.670045 26.311331
1225  2 0.0000   3.050142  20.525223 33.490375
1226  2 0.0000  35.289273   3.945941  4.774199
1227  2 0.0000  32.358442  -0.198880 11.953243
1228  2 0.0000  29.427612  -4.343702 19.132287
1229  2 0.0000  26.496781  -8.488523 26.311331
1230  2 0.0000  23.565950 -12.633345 33.490375
1231  2 0.0000  32.358443  12.235583  4.774199
1232  2 0.0000  29.427613   8.090762 11.953243
1233  2 0.0000  26.496782   3.945940 19.132287
1234  2 0.0000  23.565951  -0.198881 26.311331
1235  2 0.0000  20.635120  -4.343703 33.490375
1236  2 0.0000  29.427614  20.525225  4.774199
1237  2 0.0000  26.496783  16.380404 11.953243
1238  2 0.0000  23.565952  12.235582 19.132287
1239  2 0.0000  20.635122   8.090761 26.311331
1240  2 0.0000  17.704291   3.945939 33.490375
1241  2 0.0000  26.496784  28.814867  4.774199
1242  2 0.0000  23.565953  24.670046 11.953243
1243  2 0.0000  20.635123  20.525224 19.132287
1244  2 0.0000  17.704292  16.380403 26.311331
1245  2 0.0000  14.773461  12.235581 33.490375
1246  2 0.0000  23.565955  37.104509  4.774199
1247  2 0.0000  20.635124  32.959688 11.953243
1248  2 0.0000  17.704293  28.814866 19.132287
1249  2 0.0000  14.773462  24.670045 26.311331
1250  2 0.0000  11.842631  20.525223 33.490375
1251  2 0.0000   1.998221   0.833026  5.804388
1252  2 0.0000  -0.932610  -3.311795 12.983432
1253  2 0.0000  -3.863441  -7.456617 20.162476
1254  2 0.0000  -6.794272 -11.601438 27.341520
1255  2 0.0000  -9.725102 -15.746260 34.520564
1256  2 0.0000  -0.932609   9.122668  5.804388
1257  2 0.0000  -3.863440   4.977847 12.983432
1258  2 0.0000  -6.794270   0.833025 20.162476
1259  2 0.0000  -9.725101  -3.311796 27.341520
1260  2 0.0000 -12.655932  -7.456618 34.520564
1261  2 0.0000  -3.863439  17.412310  5.804388
1262  2 0.0000  -6.794269  13.267489 12.983432
1263  2 0.0000  -9.725100   9.122667 20.162476
1264  2 0.0000 -12.655931   4.977846 27.341520
1265  2 0.0000 -15.586762   0.833024 34.520564
1266  2 0.0000  -6.794268  25.701952  5.804388
1267  2 0.0000  -9.725099  21.557131 12.983432
1268  2 0.0000 -12.655930  17.412309 20.162476
1269  2 0.0000 -15.586760  13.267488 27.341520
1270  2 0.0000 -18.517591   9.122666 34.520564
1271  2 0.0000  -9.725098  33.991594  5.804388
1272  2 0.0000 -12.655929  29.846773 12.983432
1273  2 0.0000 -15.586759  25.701951 20.162476
1274  2 0.0000 -18.517590  21.557130 27.341520
1275  2 0.0000 -21.448421  17.412308 34.520564
1276  2 0.0000  10.790710   0.833026  5.804388
1277  2 0.0000   7.859880  -3.311795 12.983432
1278  2 0.0000   4.929049  -7.456617 20.162476
1279  2 0.0000   1.998218 -11.601438 27.341520
1280  2 0.0000  -0.932613 -15.746260 34.520564
1281  2 0.0000   7.859881   9.122668  5.804388
1282  2 0.0000   4.929050   4.977847 12.983432
1283  2 0.0000   1.998219   0.833025 20.162476
1284  2 0.0000  -0.932612  -3.311796 27.341520
1285  2 0.0000  -3.863442  -7.456618 34.520564
1286  2 0.0000   4.929051  17.412310  5.804388
1287  2 0.0000   1.998220  13.267489 12.983432
1288  2 0.0000  -0.932610   9.122667 20.162476
1289  2 0.0000  -3.863441   4.977846 27.341520
1290  2 0.0000  -6.794272   0.833024 34.520564
1291  2 0.0000   1.998221  25.701952  5.804388
1292  2 0.0000  -0.932609  21.557131 12.983432
1293  2 0.0000  -3.863440  17.412309 20.162476
1294  2 0.0000  -6.794271  13.267488 27.341520
1295  2 0.0000  -9.725102   9.122666 34.520564
1296  2 0.0000  -0.932608  33.991594  5.804388
1297  2 0.0000  -3.863439  29.846773 12.983432
1298  2 0.0000  -6.794270  25.701951 20.162476
1299  2 0.0000  -9.725100  21.557130 27.341520
1300  2 0.0000 -12.655931  17.412308 34.520564
1301  2 0.0000  19.583200   0.833026  5.804388
1302  2 0.0000  16.652369  -3.311795 12.983432
1303  2 0.0000  13.721538  -7.456617 20.162476
1304  2 0.0000  10.790708 -11.601438 27.341520
1305  2 0.0000   7.859877 -15.746260 34.520564
1306  2 0.0000  16.652370   9.122668  5.804388
1307  2 0.0000  13.721539   4.977847 12.983432
1308  2 0.0000  10.790709   0.833025 20.162476
1309  2 0.0000   7.859878  -3.311796 27.341520
1310  2 0.0000   4.929047  -7.456618 34.520564
1311  2 0.0000  13.721541  17.412310  5.804388
1312  2 0.0000  10.790710  13.267489 12.983432
1313  2 0.0000   7.859879   9.122667 20.162476
1314  2 0.0000   4.929048   4.977846 27.341520
1315  2 0.0000   1.998218   0.833024 34.520564
1316  2 0.0000  10.790711  25.701952  5.804388
1317  2 0.0000   7.859880  21.557131 12.983432
1318  2 0.0000   4.929049  17.412309 20.162476
1319  2 0.0000   1.998219  13.267488 27.341520
1320  2 0.0000  -0.932612   9.122666 34.520564
1321  2 0.0000   7.859881  33.991594  5.804388
1322  2 0.0000   4.929051  29.846773 12.983432
1323  2 0.0000   1.998220  25.701951 20.162476
1324  2 0.0000  -0.932611  21.557130 27.341520
1325  2 0.0000  -3.863442  17.412308 34.520564
1326  2 0.0000  28.375689   0.833026  5.804388
1327  2 0.0000  25.444859  -3.311795 12.983432
1328  2 0.0000  22.514028  -7.456617 20.162476
1329  2 0.0000  19.583197 -11.601438 27.341520
1330  2 0.0000  16.652366 -15.746260 34.520564
1331  2 0.0000  25.444860   9.122668  5.804388
1332  2 0.0000  22.514029   4.977847 12.983432
1333  2 0.0000  19.583198   0.833025 20.162476
1334  2 0.0000  16.652368  -3.311796 27.341520
1335  2 0.0000  13.721537  -7.456618 34.520564
1336  2 0.0000  22.514030  17.412310  5.804388
1337  2 0.0000  19.583199  13.267489 12.983432
1338  2 0.0000  16.652369   9.122667 20.162476
1339  2 0.0000  13.721538   4.977846 27.341520
1340  2 0.0000  10.790707   0.833024 34.520564
1341  2 0.0000  19.583201  25.701952  5.804388
1342  2 0.0000  16.652370  21.557131 12.983432
1343  2 0.0000  13.721539  17.412309 20.162476
1344  2 0.0000  10.790708  13.267488 27.341520
1345  2 0.0000   7.859878   9.122666 34.520564
1346  2 0.0000  16.652371  33.991594  5.804388
1347  2 0.0000  13.721540  29.846773 12.983432
1348  2 0.0000  10.790709  25.701951 20.162476
1349  2 0.0000   7.859879  21.557130 27.341520
1350  2 0.0000   4.929048  17.412308 34.520564
1351  2 0.0000  37.168179   0.833026  5.804388
1352  2 0.0000  34.237348  -3.311795 12.983432
1353  2 0.0000  31.306518  -7.456617 20.162476
1354  2 0.0000  28.375687 -11.601438 27.341520
1355  2 0.0000  25.444856 -15.746260 34.520564
1356  2 0.0000  34.237349   9.122668  5.804388
1357  2 0.0000  31.306519   4.977847 12.983432
1358  2 0.0000  28.375688   0.833025 20.162476
1359  2 0.0000  25.444857  -3.311796 27.341520
1360  2 0.0000  22.514026  -7.456618 34.520564
1361  2 0.0000  31.306520  17.412310  5.804388
1362  2 0.0000  28.375689  13.267489 12.983432
1363  2 0.0000  25.444858   9.122667 20.162476
1364  2 0.0000  22.514027   4.977846 27.341520
1365  2 0.0000  19.583197   0.833024 34.520564
1366  2 0.0000  28.375690  25.701952  5.804388
1367  2 0.0000  25.444859  21.557131 12.983432
1368  2 0.0000  22.514029  17.412309 20.162476
1369  2 0.0000  19.583198  13.267488 27.341520
1370  2 0.0000  16.652367   9.122666 34.520564
1371  2 0.0000  25.444860  33.991594  5.804388
1372  2 0.0000  22.514030  29.846773 12.983432
1373  2 0.0000  19.583199  25.701951 20.162476
1374  2 0.0000  16.652368  21.557130 27.341520
1375  2 0.0000  13.721537  17.412308 34.520564
1376  2 0.0000   4.929049  -1.298435  4.998281
1377  2 0.0000   1.998219  -5.443256 12.177325
1378  2 0.0000  -0.932612  -9.588078 19.356369
1379  2 0.0000  -3.863443 -13.732899 26.535413
1380  2 0.0000  -6.794274 -17.877721 33.714457
1381  2 0.0000   1.998220   6.991207  4.998281
1382  2 0.0000  -0.932611   2.846386 12.177325
1383  2 0.0000  -3.863442  -1.298436 19.356369
1384  2 0.0000  -6.794273  -5.443257 26.535413
1385  2 0.0000  -9.725103  -9.588079 33.714457
1386  2 0.0000  -0.932610  15.280849  4.998281
1387  2 0.0000  -3.863441  11.136028 12.177325
1388  2 0.0000  -6.794271   6.991206 19.356369
1389  2 0.0000  -9.725102   2.846385 26.535413
1390  2 0.0000 -12.655933  -1.298437 33.714457
1391  2 0.0000  -3.863440  23.570491  4.998281
1392  2 0.0000  -6.794270  19.425670 12.177325
1393  2 0.0000  -9.725101  15.280848 19.356369
1394  2 0.0000 -12.655932  11.136027 26.535413
1395  2 0.0000 -15.586763   6.991205 33.714457
1396  2 0.0000  -6.794269  31.860133  4.998281
1397  2 0.0000  -9.725100  27.715312 12.177325
1398  2 0.0000 -12.655931  23.570490 19.356369
1399  2 0.0000 -15.586761  19.425669 26.535413
1400  2 0.0000 -18.517592  15.280847 33.714457
1401  2 0.0000  13.721539  -1.298435  4.998281
1402  2 0.0000  10.790708  -5.443256 12.177325
1403  2 0.0000   7.859877  -9.588078 19.356369
1404  2 0.0000   4.929047 -13.732899 26.535413
1405  2 0.0000   1.998216 -17.877721 33.714457
1406  2 0.0000  10.790709   6.991207  4.998281
1407  2 0.0000   7.859878   2.846386 12.177325
1408  2 0.0000   4.929048  -1.298436 19.356369
1409  2 0.0000   1.998217  -5.443257 26.535413
1410  2 0.0000  -0.932614  -9.588079 33.714457
1411  2 0.0000   7.859880  15.280849  4.998281
1412  2 0.0000   4.929049  11.136028 12.177325
1413  2 0.0000   1.998218   6.991206 19.356369
1414  2 0.0000  -0.932613   2.846385 26.535413
1415  2 0.0000  -3.863443  -1.298437 33.714457
1416  2 0.0000   4.929050  23.570491  4.998281
1417  2 0.0000   1.998219  19.425670 12.177325
1418  2 0.0000  -0.932612  15.280848 19.356369
1419  2 0.0000  -3.863442  11.136027 26.535413
1420  2 0.0000  -6.794273   6.991205 33.714457
1421  2 0.0000   1.998220  31.860133  4.998281
1422  2 0.0000  -0.932610  27.715312 12.177325
1423  2 0.0000  -3.863441  23.570490 19.356369
1424  2 0.0000  -6.794272  19.425669 26.535413
1425  2 0.0000  -9.725103  15.280847 33.714457
1426  2 0.0000  22.514028  -1.298435  4.998281
1427  2 0.0000  19.583198  -5.443256 12.177325
1428  2 0.0000  16.652367  -9.588078 19.356369
1429  2 0.0000  13.721536 -13.732899 26.535413
1430  2 0.0000  10.790705 -17.877721 33.714457
1431  2 0.0000  19.583199   6.991207  4.998281
1432  2 0.0000  16.652368   2.846386 12.177325
1433  2 0.0000  13.721537  -1.298436 19.356369
1434  2 0.0000  10.790707  -5.443257 26.535413
1435  2 0.0000   7.859876  -9.588079 33.714457
1436  2 0.0000  16.652369  15.280849  4.998281
1437  2 0.0000  13.721538  11.136028 12.177325
1438  2 0.0000  10.790708   6.991206 19.356369
1439  2 0.0000   7.859877   2.846385 26.535413
1440  2 0.0000   4.929046  -1.298437 33.714457
1441  2 0.0000  13.721540  23.570491  4.998281
1442  2 0.0000  10.790709  19.425670 12.177325
1443  2 0.0000   7.859878  15.280848 19.356369
1444  2 0.0000   4.929047  11.136027 26.535413
1445  2 0.0000   1.998217   6.991205 33.714457
1446  2 0.0000  10.790710  31.860133  4.998281
1447  2 0.0000   7.859879  27.715312 12.177325
1448  2 0.0000   4.929048  23.570490 19.356369
1449  2 0.0000   1.998218  19.425669 26.535413
1450  2 0.0000  -0.932613  15.280847 33.714457
1451  2 0.0000  31.306518  -1.298435  4.998281
1452  2 0.0000  28.375687  -5.443256 12.177325
1453  2 0.0000  25.444857  -9.588078 19.356369
1454  2 0.0000  22.514026 -13.732899 26.535413
1455  2 0.0000  19.583195 -17.877721 33.714457
1456  2 0.0000  28.375688   6.991207  4.998281
1457  2 0.0000  25.444858   2.846386 12.177325
1458  2 0.0000  22.514027  -1.298436 19.356369
1459  2 0.0000  19.583196  -5.443257 26.535413
1460  2 0.0000  16.652365  -9.588079 33.714457
1461  2 0.0000  25.444859  15.280849  4.998281
1462  2 0.0000  22.514028  11.136028 12.177325
1463  2 0.0000  19.583197   6.991206 19.356369
1464  2 0.0000  16.652366   2.846385 26.535413
1465  2 0.0000  13.721536  -1.298437 33.714457
1466  2 0.0000  22.514029  23.570491  4.998281
1467  2 0.0000  19.583198  19.425670 12.177325
1468  2 0.0000  16.652368  15.280848 19.356369
1469  2 0.0000  13.721537  11.136027 26.535413
1470  2 0.0000  10.790706   6.991205 33.714457
1471  2 0.0000  19.583199  31.860133  4.998281
1472  2 0.0000  16.652369  27.715312 12.177325
1473  2 0.0000  13.721538  23.570490 19.356369
1474  2 0.0000  10.790707  19.425669 26.535413
1475  2 0.0000   7.859876  15.280847 33.714457
1476  2 0.0000  40.099008  -1.298435  4.998281
1477  2 0.0000  37.168177  -5.443256 12.177325
1478  2 0.0000  34.237346  -9.588078 19.356369
1479  2 0.0000  31.306515 -13.732899 26.535413
1480  2 0.0000  28.375685 -17.877721 33.714457
1481  2 0.0000  37.168178   6.991207  4.998281
1482  2 0.0000  34.237347   2.846386 12.177325
1483  2 0.0000  31.306516  -1.298436 19.356369
1484  2 0.0000  28.375686  -5.443257 26.535413
1485  2 0.0000  25.444855  -9.588079 33.714457
1486  2 0.0000  34.237348  15.280849  4.998281
1487  2 0.0000  31.306518  11.136028 12.177325
1488  2 0.0000  28.375687   6.991206 19.356369
1489  2 0.0000  25.444856   2.846385 26.535413
1490  2 0.0000  22.514025  -1.298437 33.714457
1491  2 0.0000  31.306519  23.570491  4.998281
1492  2 0.0000  28.375688  19.425670 12.177325
1493  2 0.0000  25.444857  15.280848 19.356369
1494  2 0.0000  22.514026  11.136027 26.535413
1495  2 0.0000  19.583196   6.991205 33.714457
1496  2 0.0000  28.375689  31.860133  4.998281
1497  2 0.0000  25.444858  27.715312 12.177325
1498  2 0.0000  22.514028  23.570490 19.356369
1499  2 0.0000  19.583197  19.425669 26.535413
1500  2 0.0000  16.652366  15.280847 33.714457
1501  2 0.0000  -0.932606   0.465406  3.555429
1502  2 0.0000  -3.863436  -3.679415 10.734473
1503  2 0.0000  -6.794267  -7.824236 17.913517
1504  2 0.0000  -9.725098 -11.969058 25.092561
1505  2 0.0000 -12.655929 -16.113879 32.271605
1506  2 0.0000  -3.863435   8.755048  3.555429
1507  2 0.0000  -6.794266   4.610227 10.734473
1508  2 0.0000  -9.725097   0.465406 17.913517
1509  2 0.0000 -12.655928  -3.679416 25.092561
1510  2 0.0000 -15.586758  -7.824237 32.271605
1511  2 0.0000  -6.794265  17.044690  3.555429
1512  2 0.0000  -9.725096  12.899869 10.734473
1513  2 0.0000 -12.655926   8.755048 17.913517
1514  2 0.0000 -15.586757   4.610226 25.092561
1515  2 0.0000 -18.517588   0.465405 32.271605
1516  2 0.0000  -9.725095  25.334332  3.555429
1517  2 0.0000 -12.655925  21.189511 10.734473
1518  2 0.0000 -15.586756  17.044690 17.913517
1519  2 0.0000 -18.517587  12.899868 25.092561
1520  2 0.0000 -21.448418   8.755047 32.271605
1521  2 0.0000 -12.655924  33.623974  3.555429
1522  2 0.0000 -15.586755  29.479153 10.734473
1523  2 0.0000 -18.517586  25.334332 17.913517
1524  2 0.0000 -21.448416  21.189510 25.092561
1525  2 0.0000 -24.379247  17.044689 32.271605
1526  2 0.0000   7.859884   0.465406  3.555429
1527  2 0.0000   4.929053  -3.679415 10.734473
1528  2 0.0000   1.998222  -7.824236 17.913517
1529  2 0.0000  -0.932608 -11.969058 25.092561
1530  2 0.0000  -3.863439 -16.113879 32.271605
1531  2 0.0000   4.929054   8.755048  3.555429
1532  2 0.0000   1.998223   4.610227 10.734473
1533  2 0.0000  -0.932607   0.465406 17.913517
1534  2 0.0000  -3.863438  -3.679416 25.092561
1535  2 0.0000  -6.794269  -7.824237 32.271605
1536  2 0.0000   1.998225  17.044690  3.555429
1537  2 0.0000  -0.932606  12.899869 10.734473
1538  2 0.0000  -3.863437   8.755048 17.913517
1539  2 0.0000  -6.794268   4.610226 25.092561
1540  2 0.0000  -9.725098   0.465405 32.271605
1541  2 0.0000  -0.932605  25.334332  3.555429
1542  2 0.0000  -3.863436  21.189511 10.734473
1543  2 0.0000  -6.794267  17.044690 17.913517
1544  2 0.0000  -9.725097  12.899868 25.092561
1545  2 0.0000 -12.655928   8.755047 32.271605
1546  2 0.0000  -3.863435  33.623974  3.555429
1547  2 0.0000  -6.794265  29.479153 10.734473
1548  2 0.0000  -9.725096  25.334332 17.913517
1549  2 0.0000 -12.655927  21.189510 25.092561
1550  2 0.0000 -15.586758  17.044689 32.271605
1551  2 0.0000  16.652373   0.465406  3.555429
1552  2 0.0000  13.721543  -3.679415 10.734473
1553  2 0.0000  10.790712  -7.824236 17.913517
1554  2 0.0000   7.859881 -11.969058 25.092561
1555  2 0.0000   4.929050 -16.113879 32.271605
1556  2 0.0000  13.721544   8.755048  3.555429
1557  2 0.0000  10.790713   4.610227 10.734473
1558  2 0.0000   7.859882   0.465406 17.913517
1559  2 0.0000   4.929052  -3.679416 25.092561
1560  2 0.0000   1.998221  -7.824237 32.271605
1561  2 0.0000  10.790714  17.044690  3.555429
1562  2 0.0000   7.859883  12.899869 10.734473
1563  2 0.0000   4.929053   8.755048 17.913517
1564  2 0.0000   1.998222   4.610226 25.092561
1565  2 0.0000  -0.932609   0.465405 32.271605
1566  2 0.0000   7.859885  25.334332  3.555429
1567  2 0.0000   4.929054  21.189511 10.734473
1568  2 0.0000   1.998223  17.044690 17.913517
1569  2 0.0000  -0.932608  12.899868 25.092561
1570  2 0.0000  -3.863438   8.755047 32.271605
1571  2 0.0000   4.929055  33.623974  3.555429
1572  2 0.0000   1.998224  29.479153 10.734473
1573  2 0.0000  -0.932607  25.334332 17.913517
1574  2 0.0000  -3.863437  21.189510 25.092561
1575  2 0.0000  -6.794268  17.044689 32.271605
1576  2 0.0000  25.444863   0.465406  3.555429
1577  2 0.0000  22.514032  -3.679415 10.734473
1578  2 0.0000  19.583202  -7.824236 17.913517
1579  2 0.0000  16.652371 -11.969058 25.092561
1580  2 0.0000  13.721540 -16.113879 32.271605
1581  2 0.0000  22.514033   8.755048  3.555429
1582  2 0.0000  19.583203   4.610227 10.734473
1583  2 0.0000  16.652372   0.465406 17.913517
1584  2 0.0000  13.721541  -3.679416 25.092561
1585  2 0.0000  10.790710  -7.824237 32.271605
1586  2 0.0000  19.583204  17.044690  3.555429
1587  2 0.0000  16.652373  12.899869 10.734473
1588  2 0.0000  13.721542   8.755048 17.913517
1589  2 0.0000  10.790711   4.610226 25.092561
1590  2 0.0000   7.859881   0.465405 32.271605
1591  2 0.0000  16.652374  25.334332  3.555429
1592  2 0.0000  13.721543  21.189511 10.734473
1593  2 0.0000  10.790713  17.044690 17.913517
1594  2 0.0000   7.859882  12.899868 25.092561
1595  2 0.0000   4.929051   8.755047 32.271605
1596  2 0.0000  13.721544  33.623974  3.555429
1597  2 0.0000  10.790714  29.479153 10.734473
1598  2 0.0000   7.859883  25.334332 17.913517
1599  2 0.0000   4.929052  21.189510 25.092561
1600  2 0.0000   1.998221  17.044689 32.271605
1601  2 0.0000  34.237353   0.465406  3.555429
1602  2 0.0000  31.306522  -3.679415 10.734473
1603  2 0.0000  28.375691  -7.824236 17.913517
1604  2 0.0000  25.444860 -11.969058 25.092561
1605  2 0.0000  22.514030 -16.113879 32.271605
1606  2 0.0000  31.306523   8.755048  3.555429
1607  2 0.0000  28.375692   4.610227 10.734473
1608  2 0.0000  25.444861   0.465406 17.913517
1609  2 0.0000  22.514031  -3.679416 25.092561
1610  2 0.0000  19.583200  -7.824237 32.271605
1611  2 0.0000  28.375693  17.044690  3.555429
1612  2 0.0000  25.444863  12.899869 10.734473
1613  2 0.0000  22.514032   8.755048 17.913517
1614  2 0.0000  19.583201   4.610226 25.092561
1615  2 0.0000  16.652370   0.465405 32.271605
1616  2 0.0000  25.444864  25.334332  3.555429
1617  2 0.0000  22.514033  21.189511 10.734473
1618  2 0.0000  19.583202  17.044690 17.913517
1619  2 0.0000  16.652371  12.899868 25.092561
1620  2 0.0000  13.721541   8.755047 32.271605
1621  2 0.0000  22.514034  33.623974  3.555429
1622  2 0.0000  19.583203  29.479153 10.734473
1623  2 0.0000  16.652373  25.334332 17.913517
1624  2 0.0000  13.721542  21.189510 25.092561
1625  2 0.0000  10.790711  17.044689 32.271605
1626  3 0.0000   7.018247  -0.000000  0.000000
1627  3 0.0000   4.087416  -4.144821  7.179044
1628  3 0.0000   1.156585  -8.289643 14.358088
1629  3 0.0000  -1.774246 -12.434464 21.537132
1630  3 0.0000  -4.705076 -16.579286 28.716176
1631  3 0.0000   4.087417   8.289642  0.000000
1632  3 0.0000   1.156586   4.144821  7.179044
1633  3 0.0000  -1.774244  -0.000001 14.358088
1634  3 0.0000  -4.705075  -4.144822 21.537132
1635  3 0.0000  -7.635906  -8.289644 28.716176
1636  3 0.0000   1.156587  16.579284  0.000000
1637  3 0.0000  -1.774243  12.434463  7.179044
1638  3 0.0000  -4.705074   8.289641 14.358088
1639  3 0.0000  -7.635905   4.144820 21.537132
1640  3 0.0000 -10.566736  -0.000002 28.716176
1641  3 0.0000  -1.774242  24.868926  0.000000
1642  3 0.0000  -4.705073  20.724105  7.179044
1643  3 0.0000  -7.635904  16.579283 14.358088
1644  3 0.0000 -10.566735  12.434462 21.537132
1645  3 0.0000 -13.497565   8.289640 28.716176
1646  3 0.0000  -4.705072  33.158568  0.000000
1647  3 0.0000  -7.635903  29.013747  7.179044
1648  3 0.0000 -10.566733  24.868925 14.358088
1649  3 0.0000 -13.497564  20.724104 21.537132
1650  3 0.0000 -16.428395  16.579282 28.716176
1651  3 0.0000  15.810736  -0.000000  0.000000
1652  3 0.0000  12.879905  -4.144821  7.179044
1653  3 0.0000   9.949075  -8.289643 14.358088
1654  3 0.0000   7.018244 -12.434464 21.537132
1655  3 0.0000   4.087413 -16.579286 28.716176
1656  3 0.0000  12.879907   8.289642  0.000000
1657  3 0.0000   9.949076   4.144821  7.179044
1658  3 0.0000   7.018245  -0.000001 14.358088
1659  3 0.0000   4.087414  -4.144822 21.537132
1660  3 0.0000   1.156584  -8.289644 28.716176
1661  3 0.0000   9.949077  16.579284  0.000000
1662  3 0.0000   7.018246  12.434463  7.179044
1663  3 0.0000   4.087415   8.289641 14.358088
1664  3 0.0000   1.156585   4.144820 21.537132
1665  3 0.0000  -1.774246  -0.000002 28.716176
1666  3 0.0000   7.018247  24.868926  0.000000
1667  3 0.0000   4.087417  20.724105  7.179044
1668  3 0.0000   1.156586  16.579283 14.358088
1669  3 0.0000  -1.774245  12.434462 21.537132
1670  3 0.0000  -4.705076   8.289640 28.716176
1671  3 0.0000   4.087418  33.158568  0.000000
1672  3 0.0000   1.156587  29.013747  7.179044
1673  3 0.0000  -1.774244  24.868925 14.358088
1674  3 0.0000  -4.705075  20.724104 21.537132
1675  3 0.0000  -7.635905  16.579282 28.716176
1676  3 0.0000  24.603226  -0.000000  0.000000
1677  3 0.0000  21.672395  -4.144821  7.179044
1678  3 0.0000  18.741564  -8.289643 14.358088
1679  3 0.0000  15.810734 -12.434464 21.537132
1680  3 0.0000  12.879903 -16.579286 28.716176
1681  3 0.0000  21.672396   8.289642  0.000000
1682  3 0.0000  18.741565   4.144821  7.179044
1683  3 0.0000  15.810735  -0.000001 14.358088
1684  3 0.0000  12.879904  -4.144822 21.537132
1685  3 0.0000   9.949073  -8.289644 28.716176
1686  3 0.0000  18.741567  16.579284  0.000000
1687  3 0.0000  15.810736  12.434463  7.179044
1688  3 0.0000  12.879905   8.289641 14.358088
1689  3 0.0000   9.949074   4.144820 21.537132
1690  3 0.0000   7.018243  -0.000002 28.716176
1691  3 0.0000  15.810737  24.868926  0.000000
1692  3 0.0000  12.879906  20.724105  7.179044
1693  3 0.0000   9.949075  16.579283 14.358088
1694  3 0.0000   7.018245  12.434462 21.537132
1695  3 0.0000   4.087414   8.289640 28.716176
1696  3 0.0000  12.879907  33.158568  0.000000
1697  3 0.0000   9.949076  29.013747  7.179044
1698  3 0.0000   7.018246  24.868925 14.358088
1699  3 0.0000   4.087415  20.724104 21.537132
1700  3 0.0000   1.156584  16.579282 28.716176
1701  3 0.0000  33.395715  -0.000000  0.000000
1702  3 0.0000  30.464885  -4.144821  7.179044
1703  3 0.0000  27.534054  -8.289643 14.358088
1704  3 0.0000  24.603223 -12.434464 21.537132
1705  3 0.0000  21.672392 -16.579286 28.716176
1706  3 0.0000  30.464886   8.289642  0.000000
1707  3 0.0000  27.534055   4.144821  7.179044
1708  3 0.0000  24.603224  -0.000001 14.358088
1709  3 0.0000  21.672393  -4.144822 21.537132
1710  3 0.0000  18.741563  -8.289644 28.716176
1711  3 0.0000  27.534056  16.579284  0.000000
1712  3 0.0000  24.603225  12.434463  7.179044
1713  3 0.0000  21.672395   8.289641 14.358088
1714  3 0.0000  18.741564   4.144820 21.537132
1715  3 0.0000  15.810733  -0.000002 28.716176
1716  3 0.0000  24.603226  24.868926  0.000000
1717  3 0.0000  21.672396  20.724105  7.179044
1718  3 0.0000  18.741565  16.579283 14.358088
1719  3 0.0000  15.810734  12.434462 21.537132
1720  3 0.0000  12.879903   8.289640 28.716176
1721  3 0.0000  21.672397  33.158568  0.000000
1722  3 0.0000  18.741566  29.013747  7.179044
1723  3 0.0000  15.810735  24.868925 14.358088
1724  3 0.0000  12.879905  20.724104 21.537132
1725  3 0.0000   9.949074  16.579282 28.716176
1726  3 0.0000  42.188205  -0.000000  0.000000
1727  3 0.0000  39.257374  -4.144821  7.179044
1728  3 0.0000  36.326543  -8.289643 14.358088
1729  3 0.0000  33.395713 -12.434464 21.537132
1730  3 0.0000  30.464882 -16.579286 28.716176
1731  3 0.0000  39.257375   8.289642  0.000000
1732  3 0.0000  36.326545   4.144821  7.179044
1733  3 0.0000  33.395714  -0.000001 14.358088
1734  3 0.0000  30.464883  -4.144822 21.537132
1735  3 0.0000  27.534052  -8.289644 28.716176
1736  3 0.0000  36.326546  16.579284  0.000000
1737  3 0.0000  33.395715  12.434463  7.179044
1738  3 0.0000  30.464884   8.289641 14.358088
1739  3 0.0000  27.534053   4.144820 21.537132
1740  3 0.0000  24.603223  -0.000002 28.716176
1741  3 0.0000  33.395716  24.868926  0.000000
1742  3 0.0000  30.464885  20.724105  7.179044
1743  3 0.0000  27.534055  16.579283 14.358088
1744  3 0.0000  24.603224  12.434462 21.537132
1745  3 0.0000  21.672393   8.289640 28.716176
1746  3 0.0000  30.464886  33.158568  0.000000
1747  3 0.0000  27.534056  29.013747  7.179044
1748  3 0.0000  24.603225  24.868925 14.358088
1749  3 0.0000  21.672394  20.724104 21.537132
1750  3 0.0000  18.741563  16.579282 28.716176
1751  3 0.0000   0.591409   0.836379  1.448656
1752  3 0.0000  -2.339421  -3.308442  8.627700
1753  3 0.0000  -5.270252  -7.453264 15.806744
1754  3 0.0000  -8.201083 -11.598085 22.985788
1755  3 0.0000 -11.131914 -15.742907 30.164832
1756  3 0.0000  -2.339420   9.126021  1.448656
1757  3 0.0000  -5.270251   4.981200  8.627700
1758  3 0.0000  -8.201082   0.836378 15.806744
1759  3 0.0000 -11.131912  -3.308443 22.985788
1760  3 0.0000 -14.062743  -7.453265 30.164832
1761  3 0.0000  -5.270250  17.415663  1.448656
1762  3 0.0000  -8.201081  13.270842  8.627700
1763  3 0.0000 -11.131911   9.126020 15.806744
1764  3 0.0000 -14.062742   4.981199 22.985788
1765  3 0.0000 -16.993573   0.836377 30.164832
1766  3 0.0000  -8.201079  25.705305  1.448656
1767  3 0.0000 -11.131910  21.560484  8.627700
1768  3 0.0000 -14.062741  17.415662 15.806744
1769  3 0.0000 -16.993572  13.270841 22.985788
1770  3 0.0000 -19.924403   9.126019 30.164832
1771  3 0.0000 -11.131909  33.994947  1.448656
1772  3 0.0000 -14.062740  29.850126  8.627700
1773  3 0.0000 -16.993571  25.705304 15.806744
1774  3 0.0000 -19.924401  21.560483 22.985788
1775  3 0.0000 -22.855232  17.415661 30.164832
1776  3 0.0000   9.383899   0.836379  1.448656
1777  3 0.0000   6.453068  -3.308442  8.627700
1778  3 0.0000   3.522237  -7.453264 15.806744
1779  3 0.0000   0.591407 -11.598085 22.985788
1780  3 0.0000  -2.339424 -15.742907 30.164832
1781  3 0.0000   6.453069   9.126021  1.448656
1782  3 0.0000   3.522239   4.981200  8.627700
1783  3 0.0000   0.591408   0.836378 15.806744
1784  3 0.0000  -2.339423  -3.308443 22.985788
1785  3 0.0000  -5.270254  -7.453265 30.164832
1786  3 0.0000   3.522240  17.415663  1.448656
1787  3 0.0000   0.591409  13.270842  8.627700
1788  3 0.0000  -2.339422   9.126020 15.806744
1789  3 0.0000  -5.270253   4.981199 22.985788
1790  3 0.0000  -8.201083   0.836377 30.164832
1791  3 0.0000   0.591410  25.705305  1.448656
1792  3 0.0000  -2.339421  21.560484  8.627700
1793  3 0.0000  -5.270251  17.415662 15.806744
1794  3 0.0000  -8.201082  13.270841 22.985788
1795  3 0.0000 -11.131913   9.126019 30.164832
1796  3 0.0000  -2.339420  33.994947  1.448656
1797  3 0.0000  -5.270250  29.850126  8.627700
1798  3 0.0000  -8.201081  25.705304 15.806744
1799  3 0.0000 -11.131912  21.560483 22.985788
1800  3 0.0000 -14.062743  17.415661 30.164832
1801  3 0.0000  18.176389   0.836379  1.448656
1802  3 0.0000  15.245558  -3.308442  8.627700
1803  3 0.0000  12.314727  -7.453264 15.806744
1804  3 0.0000   9.383896 -11.598085 22.985788
1805  3 0.0000   6.453066 -15.742907 30.164832
1806  3 0.0000  15.245559   9.126021  1.448656
1807  3 0.0000  12.314728   4.981200  8.627700
1808  3 0.0000   9.383897   0.836378 15.806744
1809  3 0.0000   6.453067  -3.308443 22.985788
1810  3 0.0000   3.522236  -7.453265 30.164832
1811  3 0.0000  12.314729  17.415663  1.448656
1812  3 0.0000   9.383899  13.270842  8.627700
1813  3 0.0000   6.453068   9.126020 15.806744
1814  3 0.0000   3.522237   4.981199 22.985788
1815  3 0.0000   0.591406   0.836377 30.164832
1816  3 0.0000   9.383900  25.705305  1.448656
1817  3 0.0000   6.453069  21.560484  8.627700
1818  3 0.0000   3.522238  17.415662 15.806744
1819  3 0.0000   0.591407  13.270841 22.985788
1820  3 0.0000  -2.339423   9.126019 30.164832
1821  3 0.0000   6.453070  33.994947  1.448656
1822  3 0.0000   3.522239  29.850126  8.627700
1823  3 0.0000   0.591409  25.705304 15.806744
1824  3 0.0000  -2.339422  21.560483 22.985788
1825  3 0.0000  -5.270253  17.415661 30.164832
1826  3 0.0000  26.968878   0.836379  1.448656
1827  3 0.0000  24.038047  -3.308442  8.627700
1828  3 0.0000  21.107217  -7.453264 15.806744
1829  3 0.0000  18.176386 -11.598085 22.985788
1830  3 0.0000  15.245555 -15.742907 30.164832
1831  3 0.0000  24.038048   9.126021  1.448656
1832  3 0.0000  21.107218   4.981200  8.627700
1833  3 0.0000  18.176387   0.836378 15.806744
1834  3 0.0000  15.245556  -3.308443 22.985788
1835  3 0.0000  12.314725  -7.453265 30.164832
1836  3 0.0000  21.107219  17.415663  1.448656
1837  3 0.0000  18.176388  13.270842  8.627700
1838  3 0.0000  15.245557   9.126020 15.806744
1839  3 0.0000  12.314727   4.981199 22.985788
1840  3 0.0000   9.383896   0.836377 30.164832
1841  3 0.0000  18.176389  25.705305  1.448656
1842  3 0.0000  15.245558  21.560484  8.627700
1843  3 0.0000  12.314728  17.415662 15.806744
1844  3 0.0000   9.383897  13.270841 22.985788
1845  3 0.0000   6.453066   9.126019 30.164832
1846  3 0.0000  15.245560  33.994947  1.448656
1847  3 0.0000  12.314729  29.850126  8.627700
1848  3 0.0000   9.383898  25.705304 15.806744
1849  3 0.0000   6.453067  21.560483 22.985788
1850  3 0.0000   3.522237  17.415661 30.164832
1851  3 0.0000  35.761368   0.836379  1.448656
1852  3 0.0000  32.830537  -3.308442  8.627700
1853  3 0.0000  29.899706  -7.453264 15.806744
1854  3 0.0000  26.968875 -11.598085 22.985788
1855  3 0.0000  24.038045 -15.742907 30.164832
1856  3 0.0000  32.830538   9.126021  1.448656
1857  3 0.0000  29.899707   4.981200  8.627700
1858  3 0.0000  26.968877   0.836378 15.806744
1859  3 0.0000  24.038046  -3.308443 22.985788
1860  3 0.0000  21.107215  -7.453265 30.164832
1861  3 0.0000  29.899708  17.415663  1.448656
1862  3 0.0000  26.968878  13.270842  8.627700
1863  3 0.0000  24.038047   9.126020 15.806744
1864  3 0.0000  21.107216   4.981199 22.985788
1865  3 0.0000  18.176385   0.836377 30.164832
1866  3 0.0000  26.968879  25.705305  1.448656
1867  3 0.0000  24.038048  21.560484  8.627700
1868  3 0.0000  21.107217  17.415662 15.806744
1869  3 0.0000  18.176387  13.270841 22.985788
1870  3 0.0000  15.245556   9.126019 30.164832
1871  3 0.0000  24.038049  33.994947  1.448656
1872  3 0.0000  21.107218  29.850126  8.627700
1873  3 0.0000  18.176388  25.705304 15.806744
1874  3 0.0000  15.245557  21.560483 22.985788
1875  3 0.0000  12.314726  17.415661 30.164832
1876  3 0.0000   3.522243   2.472050  7.179043
1877  3 0.0000   0.591412  -1.672772 14.358087
1878  3 0.0000  -2.339418  -5.817593 21.537131
1879  3 0.0000  -5.270249  -9.962415 28.716175
1880  3 0.0000  -8.201080 -14.107236 35.895219
1881  3 0.0000   0.591413  10.761692  7.179043
1882  3 0.0000  -2.339417   6.616870 14.358087
1883  3 0.0000  -5.270248   2.472049 21.537131
1884  3 0.0000  -8.201079  -1.672773 28.716175
1885  3 0.0000 -11.131910  -5.817594 35.895219
1886  3 0.0000  -2.339416  19.051334  7.179043
1887  3 0.0000  -5.270247  14.906512 14.358087
1888  3 0.0000  -8.201078  10.761691 21.537131
1889  3 0.0000 -11.131908   6.616869 28.716175
1890  3 0.0000 -14.062739   2.472048 35.895219
1891  3 0.0000  -5.270246  27.340976  7.179043
1892  3 0.0000  -8.201077  23.196154 14.358087
1893  3 0.0000 -11.131907  19.051333 21.537131
1894  3 0.0000 -14.062738  14.906511 28.716175
1895  3 0.0000 -16.993569  10.761690 35.895219
1896  3 0.0000  -8.201075  35.630618  7.179043
1897  3 0.0000 -11.131906  31.485796 14.358087
1898  3 0.0000 -14.062737  27.340975 21.537131
1899  3 0.0000 -16.993568  23.196153 28.716175
1900  3 0.0000 -19.924399  19.051332 35.895219
1901  3 0.0000  12.314733   2.472050  7.179043
1902  3 0.0000   9.383902  -1.672772 14.358087
1903  3 0.0000   6.453071  -5.817593 21.537131
1904  3 0.0000   3.522240  -9.962415 28.716175
1905  3 0.0000   0.591410 -14.107236 35.895219
1906  3 0.0000   9.383903  10.761692  7.179043
1907  3 0.0000   6.453072   6.616870 14.358087
1908  3 0.0000   3.522241   2.472049 21.537131
1909  3 0.0000   0.591411  -1.672773 28.716175
1910  3 0.0000  -2.339420  -5.817594 35.895219
1911  3 0.0000   6.453073  19.051334  7.179043
1912  3 0.0000   3.522243  14.906512 14.358087
1913  3 0.0000   0.591412  10.761691 21.537131
1914  3 0.0000  -2.339419   6.616869 28.716175
1915  3 0.0000  -5.270250   2.472048 35.895219
1916  3 0.0000   3.522244  27.340976  7.179043
1917  3 0.0000   0.591413  23.196154 14.358087
1918  3 0.0000  -2.339418  19.051333 21.537131
1919  3 0.0000  -5.270249  14.906511 28.716175
1920  3 0.0000  -8.201079  10.761690 35.895219
1921  3 0.0000   0.591414  35.630618  7.179043
1922  3 0.0000  -2.339417  31.485796 14.358087
1923  3 0.0000  -5.270247  27.340975 21.537131
1924  3 0.0000  -8.201078  23.196153 28.716175
1925  3 0.0000 -11.131909  19.051332 35.895219
1926  3 0.0000  21.107222   2.472050  7.179043
1927  3 0.0000  18.176391  -1.672772 14.358087
1928  3 0.0000  15.245561  -5.817593 21.537131
1929  3 0.0000  12.314730  -9.962415 28.716175
1930  3 0.0000   9.383899 -14.107236 35.895219
1931  3 0.0000  18.176393  10.761692  7.179043
1932  3 0.0000  15.245562   6.616870 14.358087
1933  3 0.0000  12.314731   2.472049 21.537131
1934  3 0.0000   9.383900  -1.672773 28.716175
1935  3 0.0000   6.453070  -5.817594 35.895219
1936  3 0.0000  15.245563  19.051334  7.179043
1937  3 0.0000  12.314732  14.906512 14.358087
1938  3 0.0000   9.383901  10.761691 21.537131
1939  3 0.0000   6.453071   6.616869 28.716175
1940  3 0.0000   3.522240   2.472048 35.895219
1941  3 0.0000  12.314733  27.340976  7.179043
1942  3 0.0000   9.383903  23.196154 14.358087
1943  3 0.0000   6.453072  19.051333 21.537131
1944  3 0.0000   3.522241  14.906511 28.716175
1945  3 0.0000   0.591410  10.761690 35.895219
1946  3 0.0000   9.383904  35.630618  7.179043
1947  3 0.0000   6.453073  31.485796 14.358087
1948  3 0.0000   3.522242  27.340975 21.537131
1949  3 0.0000   0.591411  23.196153 28.716175
1950  3 0.0000  -2.339419  19.051332 35.895219
1951  3 0.0000  29.899712   2.472050  7.179043
1952  3 0.0000  26.968881  -1.672772 14.358087
1953  3 0.0000  24.038050  -5.817593 21.537131
1954  3 0.0000  21.107219  -9.962415 28.716175
1955  3 0.0000  18.176389 -14.107236 35.895219
1956  3 0.0000  26.968882  10.761692  7.179043
1957  3 0.0000  24.038051   6.616870 14.358087
1958  3 0.0000  21.107221   2.472049 21.537131
1959  3 0.0000  18.176390  -1.672773 28.716175
1960  3 0.0000  15.245559  -5.817594 35.895219
1961  3 0.0000  24.038052  19.051334  7.179043
1962  3 0.0000  21.107222  14.906512 14.358087
1963  3 0.0000  18.176391  10.761691 21.537131
1964  3 0.0000  15.245560   6.616869 28.716175
1965  3 0.0000  12.314729   2.472048 35.895219
1966  3 0.0000  21.107223  27.340976  7.179043
1967  3 0.0000  18.176392  23.196154 14.358087
1968  3 0.0000  15.245561  19.051333 21.537131
1969  3 0.0000  12.314731  14.906511 28.716175
1970  3 0.0000   9.383900  10.761690 35.895219
1971  3 0.0000  18.176393  35.630618  7.179043
1972  3 0.0000  15.245562  31.485796 14.358087
1973  3 0.0000  12.314732  27.340975 21.537131
1974  3 0.0000   9.383901  23.196153 28.716175
1975  3 0.0000   6.453070  19.051332 35.895219
1976  3 0.0000  38.692201   2.472050  7.179043
1977  3 0.0000  35.761371  -1.672772 14.358087
1978  3 0.0000  32.830540  -5.817593 21.537131
1979  3 0.0000  29.899709  -9.962415 28.716175
1980  3 0.0000  26.968878 -14.107236 35.895219
1981  3 0.0000  35.761372  10.761692  7.179043
1982  3 0.0000  32.830541   6.616870 14.358087
1983  3 0.0000  29.899710   2.472049 21.537131
1984  3 0.0000  26.968879  -1.672773 28.716175
1985  3 0.0000  24.038049  -5.817594 35.895219
1986  3 0.0000  32.830542  19.051334  7.179043
1987  3 0.0000  29.899711  14.906512 14.358087
1988  3 0.0000  26.968881  10.761691 21.537131
1989  3 0.0000  24.038050   6.616869 28.716175
1990  3 0.0000  21.107219   2.472048 35.895219
1991  3 0.0000  29.899712  27.340976  7.179043
1992  3 0.0000  26.968882  23.196154 14.358087
1993  3 0.0000  24.038051  19.051333 21.537131
1994  3 0.0000  21.107220  14.906511 28.716175
1995  3 0.0000  18.176389  10.761690 35.895219
1996  3 0.0000  26.968883  35.630618  7.179043
1997  3 0.0000  24.038052  31.485796 14.358087
1998  3 0.0000  21.107221  27.340975 21.537131
1999  3 0.0000  18.176391  23.196153 28.716175
2000  3 0.0000  15.245560  19.051332 35.895219
2001  3 0.0000   3.522241   4.981204  5.730381
2002  3 0.0000   0.591410   0.836382 12.909425
2003  3 0.0000  -2.339420  -3.308439 20.088469
2004  3 0.0000  -5.270251  -7.453261 27.267513
2005  3 0.0000  -8.201082 -11.598082 34.446557
2006  3 0.0000   0.591411  13.270846  5.730381
2007  3 0.0000  -2.339419   9.126024 12.909425
2008  3 0.0000  -5.270250   4.981203 20.088469
2009  3 0.0000  -8.201081   0.836381 27.267513
2010  3 0.0000 -11.131912  -3.308440 34.446557
2011  3 0.0000  -2.339418  21.560488  5.730381
2012  3 0.0000  -5.270249  17.415666 12.909425
2013  3 0.0000  -8.201080  13.270845 20.088469
2014  3 0.0000 -11.131910   9.126023 27.267513
2015  3 0.0000 -14.062741   4.981202 34.446557
2016  3 0.0000  -5.270248  29.850130  5.730381
2017  3 0.0000  -8.201079  25.705308 12.909425
2018  3 0.0000 -11.131909  21.560487 20.088469
2019  3 0.0000 -14.062740  17.415665 27.267513
2020  3 0.0000 -16.993571  13.270844 34.446557
2021  3 0.0000  -8.201077  38.139772  5.730381
2022  3 0.0000 -11.131908  33.994950 12.909425
2023  3 0.0000 -14.062739  29.850129 20.088469
2024  3 0.0000 -16.993570  25.705307 27.267513
2025  3 0.0000 -19.924400  21.560486 34.446557
2026  3 0.0000  12.314731   4.981204  5.730381
2027  3 0.0000   9.383900   0.836382 12.909425
2028  3 0.0000   6.453069  -3.308439 20.088469
2029  3 0.0000   3.522238  -7.453261 27.267513
2030  3 0.0000   0.591408 -11.598082 34.446557
2031  3 0.0000   9.383901  13.270846  5.730381
2032  3 0.0000   6.453070   9.126024 12.909425
2033  3 0.0000   3.522240   4.981203 20.088469
2034  3 0.0000   0.591409   0.836381 27.267513
2035  3 0.0000  -2.339422  -3.308440 34.446557
2036  3 0.0000   6.453071  21.560488  5.730381
2037  3 0.0000   3.522241  17.415666 12.909425
2038  3 0.0000   0.591410  13.270845 20.088469
2039  3 0.0000  -2.339421   9.126023 27.267513
2040  3 0.0000  -5.270252   4.981202 34.446557
2041  3 0.0000   3.522242  29.850130  5.730381
2042  3 0.0000   0.591411  25.705308 12.909425
2043  3 0.0000  -2.339420  21.560487 20.088469
2044  3 0.0000  -5.270250  17.415665 27.267513
2045  3 0.0000  -8.201081  13.270844 34.446557
2046  3 0.0000   0.591412  38.139772  5.730381
2047  3 0.0000  -2.339419  33.994950 12.909425
2048  3 0.0000  -5.270249  29.850129 20.088469
2049  3 0.0000  -8.201080  25.705307 27.267513
2050  3 0.0000 -11.131911  21.560486 34.446557
2051  3 0.0000  21.107220   4.981204  5.730381
2052  3 0.0000  18.176389   0.836382 12.909425
2053  3 0.0000  15.245559  -3.308439 20.088469
2054  3 0.0000  12.314728  -7.453261 27.267513
2055  3 0.0000   9.383897 -11.598082 34.446557
2056  3 0.0000  18.176391  13.270846  5.730381
2057  3 0.0000  15.245560   9.126024 12.909425
2058  3 0.0000  12.314729   4.981203 20.088469
2059  3 0.0000   9.383898   0.836381 27.267513
2060  3 0.0000   6.453068  -3.308440 34.446557
2061  3 0.0000  15.245561  21.560488  5.730381
2062  3 0.0000  12.314730  17.415666 12.909425
2063  3 0.0000   9.383899  13.270845 20.088469
2064  3 0.0000   6.453069   9.126023 27.267513
2065  3 0.0000   3.522238   4.981202 34.446557
2066  3 0.0000  12.314731  29.850130  5.730381
2067  3 0.0000   9.383901  25.705308 12.909425
2068  3 0.0000   6.453070  21.560487 20.088469
2069  3 0.0000   3.522239  17.415665 27.267513
2070  3 0.0000   0.591408  13.270844 34.446557
2071  3 0.0000   9.383902  38.139772  5.730381
2072  3 0.0000   6.453071  33.994950 12.909425
2073  3 0.0000   3.522240  29.850129 20.088469
2074  3 0.0000   0.591409  25.705307 27.267513
2075  3 0.0000  -2.339421  21.560486 34.446557
2076  3 0.0000  29.899710   4.981204  5.730381
2077  3 0.0000  26.968879   0.836382 12.909425
2078  3 0.0000  24.038048  -3.308439 20.088469
2079  3 0.0000  21.107218  -7.453261 27.267513
2080  3 0.0000  18.176387 -11.598082 34.446557
2081  3 0.0000  26.968880  13.270846  5.730381
2082  3 0.0000  24.038049   9.126024 12.909425
2083  3 0.0000  21.107219   4.981203 20.088469
2084  3 0.0000  18.176388   0.836381 27.267513
2085  3 0.0000  15.245557  -3.308440 34.446557
2086  3 0.0000  24.038051  21.560488  5.730381
2087  3 0.0000  21.107220  17.415666 12.909425
2088  3 0.0000  18.176389  13.270845 20.088469
2089  3 0.0000  15.245558   9.126023 27.267513
2090  3 0.0000  12.314728   4.981202 34.446557
2091  3 0.0000  21.107221  29.850130  5.730381
2092  3 0.0000  18.176390  25.705308 12.909425
2093  3 0.0000  15.245559  21.560487 20.088469
2094  3 0.0000  12.314729  17.415665 27.267513
2095  3 0.0000   9.383898  13.270844 34.446557
2096  3 0.0000  18.176391  38.139772  5.730381
2097  3 0.0000  15.245561  33.994950 12.909425
2098  3 0.0000  12.314730  29.850129 20.088469
2099  3 0.0000   9.383899  25.705307 27.267513
2100  3 0.0000   6.453068  21.560486 34.446557
2101  3 0.0000  38.692199   4.981204  5.730381
2102  3 0.0000  35.761369   0.836382 12.909425
2103  3 0.0000  32.830538  -3.308439 20.088469
2104  3 0.0000  29.899707  -7.453261 27.267513
2105  3 0.0000  26.968876 -11.598082 34.446557
2106  3 0.0000  35.761370  13.270846  5.730381
2107  3 0.0000  32.830539   9.126024 12.909425
2108  3 0.0000  29.899708   4.981203 20.088469
2109  3 0.0000  26.968877   0.836381 27.267513
2110  3 0.0000  24.038047  -3.308440 34.446557
2111  3 0.0000  32.830540  21.560488  5.730381
2112  3 0.0000  29.899709  17.415666 12.909425
2113  3 0.0000  26.968879  13.270845 20.088469
2114  3 0.0000  24.038048   9.126023 27.267513
2115  3 0.0000  21.107217   4.981202 34.446557
2116  3 0.0000  29.899710  29.850130  5.730381
2117  3 0.0000  26.968880  25.705308 12.909425
2118  3 0.0000  24.038049  21.560487 20.088469
2119  3 0.0000  21.107218  17.415665 27.267513
2120  3 0.0000  18.176387  13.270844 34.446557
2121  3 0.0000  26.968881  38.139772  5.730381
2122  3 0.0000  24.038050  33.994950 12.909425
2123  3 0.0000  21.107219  29.850129 20.088469
2124  3 0.0000  18.176389  25.705307 27.267513
2125  3 0.0000  15.245558  21.560486 34.446557
2126  3 0.0000   0.515305   8.289639  0.000000
2127  3 0.0000  -2.415525   4.144818  7.179044
2128  3 0.0000  -5.346356  -0.000004 14.358088
2129  3 0.0000  -8.277187  -4.144825 21.537132
2130  3 0.0000 -11.208018  -8.289647 28.716176
2131  3 0.0000  -2.415524  16.579281  0.000000
2132  3 0.0000  -5.346355  12.434460  7.179044
2133  3 0.0000  -8.277186   8.289638 14.358088
2134  3 0.0000 -11.208016   4.144817 21.537132
2135  3 0.0000 -14.138847  -0.000005 28.716176
2136  3 0.0000  -5.346354  24.868923  0.000000
2137  3 0.0000  -8.277185  20.724102  7.179044
2138  3 0.0000 -11.208015  16.579280 14.358088
2139  3 0.0000 -14.138846  12.434459 21.537132
2140  3 0.0000 -17.069677   8.289637 28.716176
2141  3 0.0000  -8.277183  33.158565  0.000000
2142  3 0.0000 -11.208014  29.013744  7.179044
2143  3 0.0000 -14.138845  24.868922 14.358088
2144  3 0.0000 -17.069676  20.724101 21.537132
2145  3 0.0000 -20.000506  16.579279 28.716176
2146  3 0.0000 -11.208013  41.448207  0.000000
2147  3 0.0000 -14.138844  37.303386  7.179044
2148  3 0.0000 -17.069675  33.158564 14.358088
2149  3 0.0000 -20.000505  29.013743 21.537132
2150  3 0.0000 -22.931336  24.868921 28.716176
2151  3 0.0000   9.307795   8.289639  0.000000
2152  3 0.0000   6.376964   4.144818  7.179044
2153  3 0.0000   3.446133  -0.000004 14.358088
2154  3 0.0000   0.515303  -4.144825 21.537132
2155  3 0.0000  -2.415528  -8.289647 28.716176
2156  3 0.0000   6.376965  16.579281  0.000000
2157  3 0.0000   3.446135  12.434460  7.179044
2158  3 0.0000   0.515304   8.289638 14.358088
2159  3 0.0000  -2.415527   4.144817 21.537132
2160  3 0.0000  -5.346358  -0.000005 28.716176
2161  3 0.0000   3.446136  24.868923  0.000000
2162  3 0.0000   0.515305  20.724102  7.179044
2163  3 0.0000  -2.415526  16.579280 14.358088
2164  3 0.0000  -5.346357  12.434459 21.537132
2165  3 0.0000  -8.277187   8.289637 28.716176
2166  3 0.0000   0.515306  33.158565  0.000000
2167  3 0.0000  -2.415525  29.013744  7.179044
2168  3 0.0000  -5.346355  24.868922 14.358088
2169  3 0.0000  -8.277186  20.724101 21.537132
2170  3 0.0000 -11.208017  16.579279 28.716176
2171  3 0.0000  -2.415524  41.448207  0.000000
2172  3 0.0000  -5.346354  37.303386  7.179044
2173  3 0.0000  -8.277185  33.158564 14.358088
2174  3 0.0000 -11.208016  29.013743 21.537132
2175  3 0.0000 -14.138847  24.868921 28.716176
2176  3 0.0000  18.100285   8.289639  0.000000
2177  3 0.0000  15.169454   4.144818  7.179044
2178  3 0.0000  12.238623  -0.000004 14.358088
2179  3 0.0000   9.307792  -4.144825 21.537132
2180  3 0.0000   6.376962  -8.289647 28.716176
2181  3 0.0000  15.169455  16.579281  0.000000
2182  3 0.0000  12.238624  12.434460  7.179044
2183  3 0.0000   9.307793   8.289638 14.358088
2184  3 0.0000   6.376963   4.144817 21.537132
2185  3 0.0000   3.446132  -0.000005 28.716176
2186  3 0.0000  12.238625  24.868923  0.000000
2187  3 0.0000   9.307795  20.724102  7.179044
2188  3 0.0000   6.376964  16.579280 14.358088
2189  3 0.0000   3.446133  12.434459 21.537132
2190  3 0.0000   0.515302   8.289637 28.716176
2191  3 0.0000   9.307796  33.158565  0.000000
2192  3 0.0000   6.376965  29.013744  7.179044
2193  3 0.0000   3.446134  24.868922 14.358088
2194  3 0.0000   0.515303  20.724101 21.537132
2195  3 0.0000  -2.415527  16.579279 28.716176
2196  3 0.0000   6.376966  41.448207  0.000000
2197  3 0.0000   3.446135  37.303386  7.179044
2198  3 0.0000   0.515305  33.158564 14.358088
2199  3 0.0000  -2.415526  29.013743 21.537132
2200  3 0.0000  -5.346357  24.868921 28.716176
2201  3 0.0000  26.892774   8.289639  0.000000
2202  3 0.0000  23.961943   4.144818  7.179044
2203  3 0.0000  21.031113  -0.000004 14.358088
2204  3 0.0000  18.100282  -4.144825 21.537132
2205  3 0.0000  15.169451  -8.289647 28.716176
2206  3 0.0000  23.961945  16.579281  0.000000
2207  3 0.0000  21.031114  12.434460  7.179044
2208  3 0.0000  18.100283   8.289638 14.358088
2209  3 0.0000  15.169452   4.144817 21.537132
2210  3 0.0000  12.238621  -0.000005 28.716176
2211  3 0.0000  21.031115  24.868923  0.000000
2212  3 0.0000  18.100284  20.724102  7.179044
2213  3 0.0000  15.169453  16.579280 14.358088
2214  3 0.0000  12.238623  12.434459 21.537132
2215  3 0.0000   9.307792   8.289637 28.716176
2216  3 0.0000  18.100285  33.158565  0.000000
2217  3 0.0000  15.169454  29.013744  7.179044
2218  3 0.0000  12.238624  24.868922 14.358088
2219  3 0.0000   9.307793  20.724101 21.537132
2220  3 0.0000   6.376962  16.579279 28.716176
2221  3 0.0000  15.169456  41.448207  0.000000
2222  3 0.0000  12.238625  37.303386  7.179044
2223  3 0.0000   9.307794  33.158564 14.358088
2224  3 0.0000   6.376963  29.013743 21.537132
2225  3 0.0000   3.446133  24.868921 28.716176
2226  3 0.0000  35.685264   8.289639  0.000000
2227  3 0.0000  32.754433   4.144818  7.179044
2228  3 0.0000  29.823602  -0.000004 14.358088
2229  3 0.0000  26.892771  -4.144825 21.537132
2230  3 0.0000  23.961941  -8.289647 28.716176
2231  3 0.0000  32.754434  16.579281  0.000000
2232  3 0.0000  29.823603  12.434460  7.179044
2233  3 0.0000  26.892773   8.289638 14.358088
2234  3 0.0000  23.961942   4.144817 21.537132
2235  3 0.0000  21.031111  -0.000005 28.716176
2236  3 0.0000  29.823604  24.868923  0.000000
2237  3 0.0000  26.892774  20.724102  7.179044
2238  3 0.0000  23.961943  16.579280 14.358088
2239  3 0.0000  21.031112  12.434459 21.537132
2240  3 0.0000  18.100281   8.289637 28.716176
2241  3 0.0000  26.892775  33.158565  0.000000
2242  3 0.0000  23.961944  29.013744  7.179044
2243  3 0.0000  21.031113  24.868922 14.358088
2244  3 0.0000  18.100283  20.724101 21.537132
2245  3 0.0000  15.169452  16.579279 28.716176
2246  3 0.0000  23.961945  41.448207  0.000000
2247  3 0.0000  21.031114  37.303386  7.179044
2248  3 0.0000  18.100284  33.158564 14.358088
2249  3 0.0000  15.169453  29.013743 21.537132
2250  3 0.0000  12.238622  24.868921 28.716176
2251  3 0.0000   1.782116   2.520293  4.365283
2252  3 0.0000  -1.148715  -1.624528 11.544327
2253  3 0.0000  -4.079545  -5.769349 18.723371
2254  3 0.0000  -7.010376  -9.914171 25.902415
2255  3 0.0000  -9.941207 -14.058992 33.081459
2256  3 0.0000  -1.148713  10.809935  4.365283
2257  3 0.0000  -4.079544   6.665114 11.544327
2258  3 0.0000  -7.010375   2.520293 18.723371
2259  3 0.0000  -9.941206  -1.624529 25.902415
2260  3 0.0000 -12.872036  -5.769350 33.081459
2261  3 0.0000  -4.079543  19.099577  4.365283
2262  3 0.0000  -7.010374  14.954756 11.544327
2263  3 0.0000  -9.941205  10.809935 18.723371
2264  3 0.0000 -12.872035   6.665113 25.902415
2265  3 0.0000 -15.802866   2.520292 33.081459
2266  3 0.0000  -7.010373  27.389219  4.365283
2267  3 0.0000  -9.941203  23.244398 11.544327
2268  3 0.0000 -12.872034  19.099577 18.723371
2269  3 0.0000 -15.802865  14.954755 25.902415
2270  3 0.0000 -18.733696  10.809934 33.081459
2271  3 0.0000  -9.941202  35.678861  4.365283
2272  3 0.0000 -12.872033  31.534040 11.544327
2273  3 0.0000 -15.802864  27.389219 18.723371
2274  3 0.0000 -18.733695  23.244397 25.902415
2275  3 0.0000 -21.664525  19.099576 33.081459
2276  3 0.0000  10.574606   2.520293  4.365283
2277  3 0.0000   7.643775  -1.624528 11.544327
2278  3 0.0000   4.712944  -5.769349 18.723371
2279  3 0.0000   1.782114  -9.914171 25.902415
2280  3 0.0000  -1.148717 -14.058992 33.081459
2281  3 0.0000   7.643776  10.809935  4.365283
2282  3 0.0000   4.712945   6.665114 11.544327
2283  3 0.0000   1.782115   2.520293 18.723371
2284  3 0.0000  -1.148716  -1.624529 25.902415
2285  3 0.0000  -4.079547  -5.769350 33.081459
2286  3 0.0000   4.712947  19.099577  4.365283
2287  3 0.0000   1.782116  14.954756 11.544327
2288  3 0.0000  -1.148715  10.809935 18.723371
2289  3 0.0000  -4.079546   6.665113 25.902415
2290  3 0.0000  -7.010376   2.520292 33.081459
2291  3 0.0000   1.782117  27.389219  4.365283
2292  3 0.0000  -1.148714  23.244398 11.544327
2293  3 0.0000  -4.079545  19.099577 18.723371
2294  3 0.0000  -7.010375  14.954755 25.902415
2295  3 0.0000  -9.941206  10.809934 33.081459
2296  3 0.0000  -1.148713  35.678861  4.365283
2297  3 0.0000  -4.079543  31.534040 11.544327
2298  3 0.0000  -7.010374  27.389219 18.723371
2299  3 0.0000  -9.941205  23.244397 25.902415
2300  3 0.0000 -12.872036  19.099576 33.081459
2301  3 0.0000  19.367095   2.520293  4.365283
2302  3 0.0000  16.436265  -1.624528 11.544327
2303  3 0.0000  13.505434  -5.769349 18.723371
2304  3 0.0000  10.574603  -9.914171 25.902415
2305  3 0.0000   7.643772 -14.058992 33.081459
2306  3 0.0000  16.436266  10.809935  4.365283
2307  3 0.0000  13.505435   6.665114 11.544327
2308  3 0.0000  10.574604   2.520293 18.723371
2309  3 0.0000   7.643773  -1.624529 25.902415
2310  3 0.0000   4.712943  -5.769350 33.081459
2311  3 0.0000  13.505436  19.099577  4.365283
2312  3 0.0000  10.574605  14.954756 11.544327
2313  3 0.0000   7.643775  10.809935 18.723371
2314  3 0.0000   4.712944   6.665113 25.902415
2315  3 0.0000   1.782113   2.520292 33.081459
2316  3 0.0000  10.574606  27.389219  4.365283
2317  3 0.0000   7.643776  23.244398 11.544327
2318  3 0.0000   4.712945  19.099577 18.723371
2319  3 0.0000   1.782114  14.954755 25.902415
2320  3 0.0000  -1.148717  10.809934 33.081459
2321  3 0.0000   7.643777  35.678861  4.365283
2322  3 0.0000   4.712946  31.534040 11.544327
2323  3 0.0000   1.782115  27.389219 18.723371
2324  3 0.0000  -1.148715  23.244397 25.902415
2325  3 0.0000  -4.079546  19.099576 33.081459
2326  3 0.0000  28.159585   2.520293  4.365283
2327  3 0.0000  25.228754  -1.624528 11.544327
2328  3 0.0000  22.297923  -5.769349 18.723371
2329  3 0.0000  19.367093  -9.914171 25.902415
2330  3 0.0000  16.436262 -14.058992 33.081459
2331  3 0.0000  25.228755  10.809935  4.365283
2332  3 0.0000  22.297925   6.665114 11.544327
2333  3 0.0000  19.367094   2.520293 18.723371
2334  3 0.0000  16.436263  -1.624529 25.902415
2335  3 0.0000  13.505432  -5.769350 33.081459
2336  3 0.0000  22.297926  19.099577  4.365283
2337  3 0.0000  19.367095  14.954756 11.544327
2338  3 0.0000  16.436264  10.809935 18.723371
2339  3 0.0000  13.505433   6.665113 25.902415
2340  3 0.0000  10.574603   2.520292 33.081459
2341  3 0.0000  19.367096  27.389219  4.365283
2342  3 0.0000  16.436265  23.244398 11.544327
2343  3 0.0000  13.505435  19.099577 18.723371
2344  3 0.0000  10.574604  14.954755 25.902415
2345  3 0.0000   7.643773  10.809934 33.081459
2346  3 0.0000  16.436266  35.678861  4.365283
2347  3 0.0000  13.505436  31.534040 11.544327
2348  3 0.0000  10.574605  27.389219 18.723371
2349  3 0.0000   7.643774  23.244397 25.902415
2350  3 0.0000   4.712943  19.099576 33.081459
2351  3 0.0000  36.952075   2.520293  4.365283
2352  3 0.0000  34.021244  -1.624528 11.544327
2353  3 0.0000  31.090413  -5.769349 18.723371
2354  3 0.0000  28.159582  -9.914171 25.902415
2355  3 0.0000  25.228751 -14.058992 33.081459
2356  3 0.0000  34.021245  10.809935  4.365283
2357  3 0.0000  31.090414   6.665114 11.544327
2358  3 0.0000  28.159583   2.520293 18.723371
2359  3 0.0000  25.228753  -1.624529 25.902415
2360  3 0.0000  22.297922  -5.769350 33.081459
2361  3 0.0000  31.090415  19.099577  4.365283
2362  3 0.0000  28.159584  14.954756 11.544327
2363  3 0.0000  25.228754  10.809935 18.723371
2364  3 0.0000  22.297923   6.665113 25.902415
2365  3 0.0000  19.367092   2.520292 33.081459
2366  3 0.0000  28.159586  27.389219  4.365283
2367  3 0.0000  25.228755  23.244398 11.544327
2368  3 0.0000  22.297924  19.099577 18.723371
2369  3 0.0000  19.367093  14.954755 25.902415
2370  3 0.0000  16.436263  10.809934 33.081459
2371  3 0.0000  25.228756  35.678861  4.365283
2372  3 0.0000  22.297925  31.534040 11.544327
2373  3 0.0000  19.367094  27.389219 18.723371
2374  3 0.0000  16.436264  23.244397 25.902415
2375  3 0.0000  13.505433  19.099576 33.081459
2376  3 0.0000  -4.079542  -0.895770  7.179044
2377  3 0.0000  -7.010373  -5.040591 14.358088
2378  3 0.0000  -9.941204  -9.185413 21.537132
2379  3 0.0000 -12.872035 -13.330234 28.716176
2380  3 0.0000 -15.802865 -17.475055 35.895220
2381  3 0.0000  -7.010372   7.393872  7.179044
2382  3 0.0000  -9.941203   3.249051 14.358088
2383  3 0.0000 -12.872034  -0.895771 21.537132
2384  3 0.0000 -15.802864  -5.040592 28.716176
2385  3 0.0000 -18.733695  -9.185413 35.895220
2386  3 0.0000  -9.941202  15.683514  7.179044
2387  3 0.0000 -12.872032  11.538693 14.358088
2388  3 0.0000 -15.802863   7.393871 21.537132
2389  3 0.0000 -18.733694   3.249050 28.716176
2390  3 0.0000 -21.664525  -0.895771 35.895220
2391  3 0.0000 -12.872031  23.973156  7.179044
2392  3 0.0000 -15.802862  19.828335 14.358088
2393  3 0.0000 -18.733693  15.683513 21.537132
2394  3 0.0000 -21.664524  11.538692 28.716176
2395  3 0.0000 -24.595354   7.393871 35.895220
2396  3 0.0000 -15.802861  32.262798  7.179044
2397  3 0.0000 -18.733692  28.117977 14.358088
2398  3 0.0000 -21.664522  23.973155 21.537132
2399  3 0.0000 -24.595353  19.828334 28.716176
2400  3 0.0000 -27.526184  15.683513 35.895220
2401  3 0.0000   4.712947  -0.895770  7.179044
2402  3 0.0000   1.782116  -5.040591 14.358088
2403  3 0.0000  -1.148714  -9.185413 21.537132
2404  3 0.0000  -4.079545 -13.330234 28.716176
2405  3 0.0000  -7.010376 -17.475055 35.895220
2406  3 0.0000   1.782118   7.393872  7.179044
2407  3 0.0000  -1.148713   3.249051 14.358088
2408  3 0.0000  -4.079544  -0.895771 21.537132
2409  3 0.0000  -7.010375  -5.040592 28.716176
2410  3 0.0000  -9.941205  -9.185413 35.895220
2411  3 0.0000  -1.148712  15.683514  7.179044
2412  3 0.0000  -4.079543  11.538693 14.358088
2413  3 0.0000  -7.010374   7.393871 21.537132
2414  3 0.0000  -9.941204   3.249050 28.716176
2415  3 0.0000 -12.872035  -0.895771 35.895220
2416  3 0.0000  -4.079542  23.973156  7.179044
2417  3 0.0000  -7.010372  19.828335 14.358088
2418  3 0.0000  -9.941203  15.683513 21.537132
2419  3 0.0000 -12.872034  11.538692 28.716176
2420  3 0.0000 -15.802865   7.393871 35.895220
2421  3 0.0000  -7.010371  32.262798  7.179044
2422  3 0.0000  -9.941202  28.117977 14.358088
2423  3 0.0000 -12.872033  23.973155 21.537132
2424  3 0.0000 -15.802864  19.828334 28.716176
2425  3 0.0000 -18.733694  15.683513 35.895220
2426  3 0.0000  13.505437  -0.895770  7.179044
2427  3 0.0000  10.574606  -5.040591 14.358088
2428  3 0.0000   7.643775  -9.185413 21.537132
2429  3 0.0000   4.712944 -13.330234 28.716176
2430  3 0.0000   1.782114 -17.475055 35.895220
2431  3 0.0000  10.574607   7.393872  7.179044
2432  3 0.0000   7.643776   3.249051 14.358088
2433  3 0.0000   4.712946  -0.895771 21.537132
2434  3 0.0000   1.782115  -5.040592 28.716176
2435  3 0.0000  -1.148716  -9.185413 35.895220
2436  3 0.0000   7.643777  15.683514  7.179044
2437  3 0.0000   4.712947  11.538693 14.358088
2438  3 0.0000   1.782116   7.393871 21.537132
2439  3 0.0000  -1.148715   3.249050 28.716176
2440  3 0.0000  -4.079546  -0.895771 35.895220
2441  3 0.0000   4.712948  23.973156  7.179044
2442  3 0.0000   1.782117  19.828335 14.358088
2443  3 0.0000  -1.148714  15.683513 21.537132
2444  3 0.0000  -4.079544  11.538692 28.716176
2445  3 0.0000  -7.010375   7.393871 35.895220
2446  3 0.0000   1.782118  32.262798  7.179044
2447  3 0.0000  -1.148713  28.117977 14.358088
2448  3 0.0000  -4.079543  23.973155 21.537132
2449  3 0.0000  -7.010374  19.828334 28.716176
2450  3 0.0000  -9.941205  15.683513 35.895220
2451  3 0.0000  22.297926  -0.895770  7.179044
2452  3 0.0000  19.367096  -5.040591 14.358088
2453  3 0.0000  16.436265  -9.185413 21.537132
2454  3 0.0000  13.505434 -13.330234 28.716176
2455  3 0.0000  10.574603 -17.475055 35.895220
2456  3 0.0000  19.367097   7.393872  7.179044
2457  3 0.0000  16.436266   3.249051 14.358088
2458  3 0.0000  13.505435  -0.895771 21.537132
2459  3 0.0000  10.574604  -5.040592 28.716176
2460  3 0.0000   7.643774  -9.185413 35.895220
2461  3 0.0000  16.436267  15.683514  7.179044
2462  3 0.0000  13.505436  11.538693 14.358088
2463  3 0.0000  10.574606   7.393871 21.537132
2464  3 0.0000   7.643775   3.249050 28.716176
2465  3 0.0000   4.712944  -0.895771 35.895220
2466  3 0.0000  13.505437  23.973156  7.179044
2467  3 0.0000  10.574607  19.828335 14.358088
2468  3 0.0000   7.643776  15.683513 21.537132
2469  3 0.0000   4.712945  11.538692 28.716176
2470  3 0.0000   1.782114   7.393871 35.895220
2471  3 0.0000  10.574608  32.262798  7.179044
2472  3 0.0000   7.643777  28.117977 14.358088
2473  3 0.0000   4.712946  23.973155 21.537132
2474  3 0.0000   1.782116  19.828334 28.716176
2475  3 0.0000  -1.148715  15.683513 35.895220
2476  3 0.0000  31.090416  -0.895770  7.179044
2477  3 0.0000  28.159585  -5.040591 14.358088
2478  3 0.0000  25.228754  -9.185413 21.537132
2479  3 0.0000  22.297924 -13.330234 28.716176
2480  3 0.0000  19.367093 -17.475055 35.895220
2481  3 0.0000  28.159586   7.393872  7.179044
2482  3 0.0000  25.228756   3.249051 14.358088
2483  3 0.0000  22.297925  -0.895771 21.537132
2484  3 0.0000  19.367094  -5.040592 28.716176
2485  3 0.0000  16.436263  -9.185413 35.895220
2486  3 0.0000  25.228757  15.683514  7.179044
2487  3 0.0000  22.297926  11.538693 14.358088
2488  3 0.0000  19.367095   7.393871 21.537132
2489  3 0.0000  16.436264   3.249050 28.716176
2490  3 0.0000  13.505434  -0.895771 35.895220
2491  3 0.0000  22.297927  23.973156  7.179044
2492  3 0.0000  19.367096  19.828335 14.358088
2493  3 0.0000  16.436265  15.683513 21.537132
2494  3 0.0000  13.505435  11.538692 28.716176
2495  3 0.0000  10.574604   7.393871 35.895220
2496  3 0.0000  19.367097  32.262798  7.179044
2497  3 0.0000  16.436267  28.117977 14.358088
2498  3 0.0000  13.505436  23.973155 21.537132
2499  3 0.0000  10.574605  19.828334 28.716176
2500  3 0.0000   7.643774  15.683513 35.895220
2501  3 0.0000   7.643775  -1.624525  2.813762
2502  3 0.0000   4.712945  -5.769346  9.992806
2503  3 0.0000   1.782114  -9.914167 17.171850
2504  3 0.0000  -1.148717 -14.058989 24.350894
2505  3 0.0000  -4.079548 -18.203810 31.529938
2506  3 0.0000   4.712946   6.665117  2.813762
2507  3 0.0000   1.782115   2.520296  9.992806
2508  3 0.0000  -1.148716  -1.624525 17.171850
2509  3 0.0000  -4.079547  -5.769347 24.350894
2510  3 0.0000  -7.010377  -9.914168 31.529938
2511  3 0.0000   1.782116  14.954759  2.813762
2512  3 0.0000  -1.148715  10.809938  9.992806
2513  3 0.0000  -4.079546   6.665117 17.171850
2514  3 0.0000  -7.010376   2.520295 24.350894
2515  3 0.0000  -9.941207  -1.624526 31.529938
2516  3 0.0000  -1.148714  23.244401  2.813762
2517  3 0.0000  -4.079544  19.099580  9.992806
2518  3 0.0000  -7.010375  14.954759 17.171850
2519  3 0.0000  -9.941206  10.809937 24.350894
2520  3 0.0000 -12.872037   6.665116 31.529938
2521  3 0.0000  -4.079543  31.534043  2.813762
2522  3 0.0000  -7.010374  27.389222  9.992806
2523  3 0.0000  -9.941205  23.244401 17.171850
2524  3 0.0000 -12.872036  19.099579 24.350894
2525  3 0.0000 -15.802866  14.954758 31.529938
2526  3 0.0000  16.436265  -1.624525  2.813762
2527  3 0.0000  13.505434  -5.769346  9.992806
2528  3 0.0000  10.574603  -9.914167 17.171850
2529  3 0.0000   7.643773 -14.058989 24.350894
2530  3 0.0000   4.712942 -18.203810 31.529938
2531  3 0.0000  13.505435   6.665117  2.813762
2532  3 0.0000  10.574604   2.520296  9.992806
2533  3 0.0000   7.643774  -1.624525 17.171850
2534  3 0.0000   4.712943  -5.769347 24.350894
2535  3 0.0000   1.782112  -9.914168 31.529938
2536  3 0.0000  10.574606  14.954759  2.813762
2537  3 0.0000   7.643775  10.809938  9.992806
2538  3 0.0000   4.712944   6.665117 17.171850
2539  3 0.0000   1.782113   2.520295 24.350894
2540  3 0.0000  -1.148717  -1.624526 31.529938
2541  3 0.0000   7.643776  23.244401  2.813762
2542  3 0.0000   4.712945  19.099580  9.992806
2543  3 0.0000   1.782114  14.954759 17.171850
2544  3 0.0000  -1.148716  10.809937 24.350894
2545  3 0.0000  -4.079547   6.665116 31.529938
2546  3 0.0000   4.712946  31.534043  2.813762
2547  3 0.0000   1.782116  27.389222  9.992806
2548  3 0.0000  -1.148715  23.244401 17.171850
2549  3 0.0000  -4.079546  19.099579 24.350894
2550  3 0.0000  -7.010377  14.954758 31.529938
2551  3 0.0000  25.228754  -1.624525  2.813762
2552  3 0.0000  22.297924  -5.769346  9.992806
2553  3 0.0000  19.367093  -9.914167 17.171850
2554  3 0.0000  16.436262 -14.058989 24.350894
2555  3 0.0000  13.505431 -18.203810 31.529938
2556  3 0.0000  22.297925   6.665117  2.813762
2557  3 0.0000  19.367094   2.520296  9.992806
2558  3 0.0000  16.436263  -1.624525 17.171850
2559  3 0.0000  13.505433  -5.769347 24.350894
2560  3 0.0000  10.574602  -9.914168 31.529938
2561  3 0.0000  19.367095  14.954759  2.813762
2562  3 0.0000  16.436264  10.809938  9.992806
2563  3 0.0000  13.505434   6.665117 17.171850
2564  3 0.0000  10.574603   2.520295 24.350894
2565  3 0.0000   7.643772  -1.624526 31.529938
2566  3 0.0000  16.436266  23.244401  2.813762
2567  3 0.0000  13.505435  19.099580  9.992806
2568  3 0.0000  10.574604  14.954759 17.171850
2569  3 0.0000   7.643773  10.809937 24.350894
2570  3 0.0000   4.712942   6.665116 31.529938
2571  3 0.0000  13.505436  31.534043  2.813762
2572  3 0.0000  10.574605  27.389222  9.992806
2573  3 0.0000   7.643774  23.244401 17.171850
2574  3 0.0000   4.712944  19.099579 24.350894
2575  3 0.0000   1.782113  14.954758 31.529938
2576  3 0.0000  34.021244  -1.624525  2.813762
2577  3 0.0000  31.090413  -5.769346  9.992806
2578  3 0.0000  28.159582  -9.914167 17.171850
2579  3 0.0000  25.228752 -14.058989 24.350894
2580  3 0.0000  22.297921 -18.203810 31.529938
2581  3 0.0000  31.090414   6.665117  2.813762
2582  3 0.0000  28.159584   2.520296  9.992806
2583  3 0.0000  25.228753  -1.624525 17.171850
2584  3 0.0000  22.297922  -5.769347 24.350894
2585  3 0.0000  19.367091  -9.914168 31.529938
2586  3 0.0000  28.159585  14.954759  2.813762
2587  3 0.0000  25.228754  10.809938  9.992806
2588  3 0.0000  22.297923   6.665117 17.171850
2589  3 0.0000  19.367092   2.520295 24.350894
2590  3 0.0000  16.436262  -1.624526 31.529938
2591  3 0.0000  25.228755  23.244401  2.813762
2592  3 0.0000  22.297924  19.099580  9.992806
2593  3 0.0000  19.367094  14.954759 17.171850
2594  3 0.0000  16.436263  10.809937 24.350894
2595  3 0.0000  13.505432   6.665116 31.529938
2596  3 0.0000  22.297925  31.534043  2.813762
2597  3 0.0000  19.367095  27.389222  9.992806
2598  3 0.0000  16.436264  23.244401 17.171850
2599  3 0.0000  13.505433  19.099579 24.350894
2600  3 0.0000  10.574602  14.954758 31.529938
2601  3 0.0000  42.813734  -1.624525  2.813762
2602  3 0.0000  39.882903  -5.769346  9.992806
2603  3 0.0000  36.952072  -9.914167 17.171850
2604  3 0.0000  34.021241 -14.058989 24.350894
2605  3 0.0000  31.090411 -18.203810 31.529938
2606  3 0.0000  39.882904   6.665117  2.813762
2607  3 0.0000  36.952073   2.520296  9.992806
2608  3 0.0000  34.021242  -1.624525 17.171850
2609  3 0.0000  31.090412  -5.769347 24.350894
2610  3 0.0000  28.159581  -9.914168 31.529938
2611  3 0.0000  36.952074  14.954759  2.813762
2612  3 0.0000  34.021244  10.809938  9.992806
2613  3 0.0000  31.090413   6.665117 17.171850
2614  3 0.0000  28.159582   2.520295 24.350894
2615  3 0.0000  25.228751  -1.624526 31.529938
2616  3 0.0000  34.021245  23.244401  2.813762
2617  3 0.0000  31.090414  19.099580  9.992806
2618  3 0.0000  28.159583  14.954759 17.171850
2619  3 0.0000  25.228752  10.809937 24.350894
2620  3 0.0000  22.297922   6.665116 31.529938
2621  3 0.0000  31.090415  31.534043  2.813762
2622  3 0.0000  28.159584  27.389222  9.992806
2623  3 0.0000  25.228754  23.244401 17.171850
2624  3 0.0000  22.297923  19.099579 24.350894
2625  3 0.0000  19.367092  14.954758 31.529938
2626  3 0.0000   2.188943  -1.689439  6.317179
2627  3 0.0000  -0.741887  -5.834260 13.496223
2628  3 0.0000  -3.672718  -9.979081 20.675267
2629  3 0.0000  -6.603549 -14.123903 27.854311
2630  3 0.0000  -9.534380 -18.268724 35.033355
2631  3 0.0000  -0.741886   6.600203  6.317179
2632  3 0.0000  -3.672717   2.455382 13.496223
2633  3 0.0000  -6.603548  -1.689439 20.675267
2634  3 0.0000  -9.534379  -5.834261 27.854311
2635  3 0.0000 -12.465209  -9.979082 35.033355
2636  3 0.0000  -3.672716  14.889845  6.317179
2637  3 0.0000  -6.603547  10.745024 13.496223
2638  3 0.0000  -9.534378   6.600203 20.675267
2639  3 0.0000 -12.465208   2.455381 27.854311
2640  3 0.0000 -15.396039  -1.689440 35.033355
2641  3 0.0000  -6.603546  23.179487  6.317179
2642  3 0.0000  -9.534376  19.034666 13.496223
2643  3 0.0000 -12.465207  14.889845 20.675267
2644  3 0.0000 -15.396038  10.745023 27.854311
2645  3 0.0000 -18.326869   6.600202 35.033355
2646  3 0.0000  -9.534375  31.469129  6.317179
2647  3 0.0000 -12.465206  27.324308 13.496223
2648  3 0.0000 -15.396037  23.179487 20.675267
2649  3 0.0000 -18.326868  19.034665 27.854311
2650  3 0.0000 -21.257698  14.889844 35.033355
2651  3 0.0000  10.981433  -1.689439  6.317179
2652  3 0.0000   8.050602  -5.834260 13.496223
2653  3 0.0000   5.119771  -9.979081 20.675267
2654  3 0.0000   2.188941 -14.123903 27.854311
2655  3 0.0000  -0.741890 -18.268724 35.033355
2656  3 0.0000   8.050603   6.600203  6.317179
2657  3 0.0000   5.119772   2.455382 13.496223
2658  3 0.0000   2.188942  -1.689439 20.675267
2659  3 0.0000  -0.741889  -5.834261 27.854311
2660  3 0.0000  -3.672720  -9.979082 35.033355
2661  3 0.0000   5.119774  14.889845  6.317179
2662  3 0.0000   2.188943  10.745024 13.496223
2663  3 0.0000  -0.741888   6.600203 20.675267
2664  3 0.0000  -3.672719   2.455381 27.854311
2665  3 0.0000  -6.603549  -1.689440 35.033355
2666  3 0.0000   2.188944  23.179487  6.317179
2667  3 0.0000  -0.741887  19.034666 13.496223
2668  3 0.0000  -3.672718  14.889845 20.675267
2669  3 0.0000  -6.603548  10.745023 27.854311
2670  3 0.0000  -9.534379   6.600202 35.033355
2671  3 0.0000  -0.741886  31.469129  6.317179
2672  3 0.0000  -3.672716  27.324308 13.496223
2673  3 0.0000  -6.603547  23.179487 20.675267
2674  3 0.0000  -9.534378  19.034665 27.854311
2675  3 0.0000 -12.465209  14.889844 35.033355
2676  3 0.0000  19.773922  -1.689439  6.317179
2677  3 0.0000  16.843092  -5.834260 13.496223
2678  3 0.0000  13.912261  -9.979081 20.675267
2679  3 0.0000  10.981430 -14.123903 27.854311
2680  3 0.0000   8.050599 -18.268724 35.033355
2681  3 0.0000  16.843093   6.600203  6.317179
2682  3 0.0000  13.912262   2.455382 13.496223
2683  3 0.0000  10.981431  -1.689439 20.675267
2684  3 0.0000   8.050600  -5.834261 27.854311
2685  3 0.0000   5.119770  -9.979082 35.033355
2686  3 0.0000  13.912263  14.889845  6.317179
2687  3 0.0000  10.981432  10.745024 13.496223
2688  3 0.0000   8.050602   6.600203 20.675267
2689  3 0.0000   5.119771   2.455381 27.854311
2690  3 0.0000   2.188940  -1.689440 35.033355
2691  3 0.0000  10.981433  23.179487  6.317179
2692  3 0.0000   8.050603  19.034666 13.496223
2693  3 0.0000   5.119772  14.889845 20.675267
2694  3 0.0000   2.188941  10.745023 27.854311
2695  3 0.0000  -0.741890   6.600202 35.033355
2696  3 0.0000   8.050604  31.469129  6.317179
2697  3 0.0000   5.119773  27.324308 13.496223
2698  3 0.0000   2.188942  23.179487 20.675267
2699  3 0.0000  -0.741888  19.034665 27.854311
2700  3 0.0000  -3.672719  14.889844 35.033355
2701  3 0.0000  28.566412  -1.689439  6.317179
2702  3 0.0000  25.635581  -5.834260 13.496223
2703  3 0.0000  22.704750  -9.979081 20.675267
2704  3 0.0000  19.773920 -14.123903 27.854311
2705  3 0.0000  16.843089 -18.268724 35.033355
2706  3 0.0000  25.635582   6.600203  6.317179
2707  3 0.0000  22.704752   2.455382 13.496223
2708  3 0.0000  19.773921  -1.689439 20.675267
2709  3 0.0000  16.843090  -5.834261 27.854311
2710  3 0.0000  13.912259  -9.979082 35.033355
2711  3 0.0000  22.704753  14.889845  6.317179
2712  3 0.0000  19.773922  10.745024 13.496223
2713  3 0.0000  16.843091   6.600203 20.675267
2714  3 0.0000  13.912260   2.455381 27.854311
2715  3 0.0000  10.981430  -1.689440 35.033355
2716  3 0.0000  19.773923  23.179487  6.317179
2717  3 0.0000  16.843092  19.034666 13.496223
2718  3 0.0000  13.912262  14.889845 20.675267
2719  3 0.0000  10.981431  10.745023 27.854311
2720  3 0.0000   8.050600   6.600202 35.033355
2721  3 0.0000  16.843093  31.469129  6.317179
2722  3 0.0000  13.912263  27.324308 13.496223
2723  3 0.0000  10.981432  23.179487 20.675267
2724  3 0.0000   8.050601  19.034665 27.854311
2725  3 0.0000   5.119770  14.889844 35.033355
2726  3 0.0000  37.358902  -1.689439  6.317179
2727  3 0.0000  34.428071  -5.834260 13.496223
2728  3 0.0000  31.497240  -9.979081 20.675267
2729  3 0.0000  28.566409 -14.123903 27.854311
2730  3 0.0000  25.635579 -18.268724 35.033355
2731  3 0.0000  34.428072   6.600203  6.317179
2732  3 0.0000  31.497241   2.455382 13.496223
2733  3 0.0000  28.566410  -1.689439 20.675267
2734  3 0.0000  25.635580  -5.834261 27.854311
2735  3 0.0000  22.704749  -9.979082 35.033355
2736  3 0.0000  31.497242  14.889845  6.317179
2737  3 0.0000  28.566412  10.745024 13.496223
2738  3 0.0000  25.635581   6.600203 20.675267
2739  3 0.0000  22.704750   2.455381 27.854311
2740  3 0.0000  19.773919  -1.689440 35.033355
2741  3 0.0000  28.566413  23.179487  6.317179
2742  3 0.0000  25.635582  19.034666 13.496223
2743  3 0.0000  22.704751  14.889845 20.675267
2744  3 0.0000  19.773920  10.745023 27.854311
2745  3 0.0000  16.843090   6.600202 35.033355
2746  3 0.0000  25.635583  31.469129  6.317179
2747  3 0.0000  22.704752  27.324308 13.496223
2748  3 0.0000  19.773921  23.179487 20.675267
2749  3 0.0000  16.843091  19.034665 27.854311
2750  3 0.0000  13.912260  14.889844 35.033355
2751  3 0.0000   0.608358   5.645435  0.861881
2752  3 0.0000  -2.322473   1.500613  8.040925
2753  3 0.0000  -5.253303  -2.644208 15.219969
2754  3 0.0000  -8.184134  -6.789030 22.399013
2755  3 0.0000 -11.114965 -10.933851 29.578058
2756  3 0.0000  -2.322472  13.935077  0.861881
2757  3 0.0000  -5.253302   9.790255  8.040925
2758  3 0.0000  -8.184133   5.645434 15.219969
2759  3 0.0000 -11.114964   1.500612 22.399013
2760  3 0.0000 -14.045795  -2.644209 29.578058
2761  3 0.0000  -5.253301  22.224719  0.861881
2762  3 0.0000  -8.184132  18.079897  8.040925
2763  3 0.0000 -11.114963  13.935076 15.219969
2764  3 0.0000 -14.045793   9.790254 22.399013
2765  3 0.0000 -16.976624   5.645433 29.578058
2766  3 0.0000  -8.184131  30.514361  0.861881
2767  3 0.0000 -11.114962  26.369539  8.040925
2768  3 0.0000 -14.045792  22.224718 15.219969
2769  3 0.0000 -16.976623  18.079896 22.399013
2770  3 0.0000 -19.907454  13.935075 29.578058
2771  3 0.0000 -11.114960  38.804003  0.861881
2772  3 0.0000 -14.045791  34.659181  8.040925
2773  3 0.0000 -16.976622  30.514360 15.219969
2774  3 0.0000 -19.907453  26.369538 22.399013
2775  3 0.0000 -22.838283  22.224717 29.578058
2776  3 0.0000   9.400848   5.645435  0.861881
2777  3 0.0000   6.470017   1.500613  8.040925
2778  3 0.0000   3.539186  -2.644208 15.219969
2779  3 0.0000   0.608355  -6.789030 22.399013
2780  3 0.0000  -2.322475 -10.933851 29.578058
2781  3 0.0000   6.470018  13.935077  0.861881
2782  3 0.0000   3.539187   9.790255  8.040925
2783  3 0.0000   0.608357   5.645434 15.219969
2784  3 0.0000  -2.322474   1.500612 22.399013
2785  3 0.0000  -5.253305  -2.644209 29.578058
2786  3 0.0000   3.539188  22.224719  0.861881
2787  3 0.0000   0.608358  18.079897  8.040925
2788  3 0.0000  -2.322473  13.935076 15.219969
2789  3 0.0000  -5.253304   9.790254 22.399013
2790  3 0.0000  -8.184135   5.645433 29.578058
2791  3 0.0000   0.608359  30.514361  0.861881
2792  3 0.0000  -2.322472  26.369539  8.040925
2793  3 0.0000  -5.253303  22.224718 15.219969
2794  3 0.0000  -8.184134  18.079896 22.399013
2795  3 0.0000 -11.114964  13.935075 29.578058
2796  3 0.0000  -2.322471  38.804003  0.861881
2797  3 0.0000  -5.253302  34.659181  8.040925
2798  3 0.0000  -8.184132  30.514360 15.219969
2799  3 0.0000 -11.114963  26.369538 22.399013
2800  3 0.0000 -14.045794  22.224717 29.578058
2801  3 0.0000  18.193337   5.645435  0.861881
2802  3 0.0000  15.262506   1.500613  8.040925
2803  3 0.0000  12.331676  -2.644208 15.219969
2804  3 0.0000   9.400845  -6.789030 22.399013
2805  3 0.0000   6.470014 -10.933851 29.578058
2806  3 0.0000  15.262508  13.935077  0.861881
2807  3 0.0000  12.331677   9.790255  8.040925
2808  3 0.0000   9.400846   5.645434 15.219969
2809  3 0.0000   6.470015   1.500612 22.399013
2810  3 0.0000   3.539185  -2.644209 29.578058
2811  3 0.0000  12.331678  22.224719  0.861881
2812  3 0.0000   9.400847  18.079897  8.040925
2813  3 0.0000   6.470016  13.935076 15.219969
2814  3 0.0000   3.539186   9.790254 22.399013
2815  3 0.0000   0.608355   5.645433 29.578058
2816  3 0.0000   9.400848  30.514361  0.861881
2817  3 0.0000   6.470018  26.369539  8.040925
2818  3 0.0000   3.539187  22.224718 15.219969
2819  3 0.0000   0.608356  18.079896 22.399013
2820  3 0.0000  -2.322475  13.935075 29.578058
2821  3 0.0000   6.470019  38.804003  0.861881
2822  3 0.0000   3.539188  34.659181  8.040925
2823  3 0.0000   0.608357  30.514360 15.219969
2824  3 0.0000  -2.322474  26.369538 22.399013
2825  3 0.0000  -5.253304  22.224717 29.578058
2826  3 0.0000  26.985827   5.645435  0.861881
2827  3 0.0000  24.054996   1.500613  8.040925
2828  3 0.0000  21.124165  -2.644208 15.219969
2829  3 0.0000  18.193335  -6.789030 22.399013
2830  3 0.0000  15.262504 -10.933851 29.578058
2831  3 0.0000  24.054997  13.935077  0.861881
2832  3 0.0000  21.124166   9.790255  8.040925
2833  3 0.0000  18.193336   5.645434 15.219969
2834  3 0.0000  15.262505   1.500612 22.399013
2835  3 0.0000  12.331674  -2.644209 29.578058
2836  3 0.0000  21.124168  22.224719  0.861881
2837  3 0.0000  18.193337  18.079897  8.040925
2838  3 0.0000  15.262506  13.935076 15.219969
2839  3 0.0000  12.331675   9.790254 22.399013
2840  3 0.0000   9.400845   5.645433 29.578058
2841  3 0.0000  18.193338  30.514361  0.861881
2842  3 0.0000  15.262507  26.369539  8.040925
2843  3 0.0000  12.331676  22.224718 15.219969
2844  3 0.0000   9.400846  18.079896 22.399013
2845  3 0.0000   6.470015  13.935075 29.578058
2846  3 0.0000  15.262508  38.804003  0.861881
2847  3 0.0000  12.331678  34.659181  8.040925
2848  3 0.0000   9.400847  30.514360 15.219969
2849  3 0.0000   6.470016  26.369538 22.399013
2850  3 0.0000   3.539185  22.224717 29.578058
2851  3 0.0000  35.778316   5.645435  0.861881
2852  3 0.0000  32.847486   1.500613  8.040925
2853  3 0.0000  29.916655  -2.644208 15.219969
2854  3 0.0000  26.985824  -6.789030 22.399013
2855  3 0.0000  24.054993 -10.933851 29.578058
2856  3 0.0000  32.847487  13.935077  0.861881
2857  3 0.0000  29.916656   9.790255  8.040925
2858  3 0.0000  26.985825   5.645434 15.219969
2859  3 0.0000  24.054994   1.500612 22.399013
2860  3 0.0000  21.124164  -2.644209 29.578058
2861  3 0.0000  29.916657  22.224719  0.861881
2862  3 0.0000  26.985826  18.079897  8.040925
2863  3 0.0000  24.054996  13.935076 15.219969
2864  3 0.0000  21.124165   9.790254 22.399013
2865  3 0.0000  18.193334   5.645433 29.578058
2866  3 0.0000  26.985827  30.514361  0.861881
2867  3 0.0000  24.054997  26.369539  8.040925
2868  3 0.0000  21.124166  22.224718 15.219969
2869  3 0.0000  18.193335  18.079896 22.399013
2870  3 0.0000  15.262504  13.935075 29.578058
2871  3 0.0000  24.054998  38.804003  0.861881
2872  3 0.0000  21.124167  34.659181  8.040925
2873  3 0.0000  18.193336  30.514360 15.219969
2874  3 0.0000  15.262506  26.369538 22.399013
2875  3 0.0000  12.331675  22.224717 29.578058
2876  3 0.0000   0.770487  -0.403195  4.416375
2877  3 0.0000  -2.160344  -4.548016 11.595419
2878  3 0.0000  -5.091175  -8.692837 18.774463
2879  3 0.0000  -8.022005 -12.837659 25.953507
2880  3 0.0000 -10.952836 -16.982480 33.132551
2881  3 0.0000  -2.160343   7.886447  4.416375
2882  3 0.0000  -5.091173   3.741626 11.595419
2883  3 0.0000  -8.022004  -0.403195 18.774463
2884  3 0.0000 -10.952835  -4.548017 25.953507
2885  3 0.0000 -13.883666  -8.692838 33.132551
2886  3 0.0000  -5.091172  16.176089  4.416375
2887  3 0.0000  -8.022003  12.031268 11.595419
2888  3 0.0000 -10.952834   7.886447 18.774463
2889  3 0.0000 -13.883665   3.741625 25.953507
2890  3 0.0000 -16.814495  -0.403196 33.132551
2891  3 0.0000  -8.022002  24.465731  4.416375
2892  3 0.0000 -10.952833  20.320910 11.595419
2893  3 0.0000 -13.883664  16.176089 18.774463
2894  3 0.0000 -16.814494  12.031267 25.953507
2895  3 0.0000 -19.745325   7.886446 33.132551
2896  3 0.0000 -10.952832  32.755373  4.416375
2897  3 0.0000 -13.883662  28.610552 11.595419
2898  3 0.0000 -16.814493  24.465731 18.774463
2899  3 0.0000 -19.745324  20.320909 25.953507
2900  3 0.0000 -22.676155  16.176088 33.132551
2901  3 0.0000   9.562976  -0.403195  4.416375
2902  3 0.0000   6.632146  -4.548016 11.595419
2903  3 0.0000   3.701315  -8.692837 18.774463
2904  3 0.0000   0.770484 -12.837659 25.953507
2905  3 0.0000  -2.160347 -16.982480 33.132551
2906  3 0.0000   6.632147   7.886447  4.416375
2907  3 0.0000   3.701316   3.741626 11.595419
2908  3 0.0000   0.770485  -0.403195 18.774463
2909  3 0.0000  -2.160345  -4.548017 25.953507
2910  3 0.0000  -5.091176  -8.692838 33.132551
2911  3 0.0000   3.701317  16.176089  4.416375
2912  3 0.0000   0.770486  12.031268 11.595419
2913  3 0.0000  -2.160344   7.886447 18.774463
2914  3 0.0000  -5.091175   3.741625 25.953507
2915  3 0.0000  -8.022006  -0.403196 33.132551
2916  3 0.0000   0.770488  24.465731  4.416375
2917  3 0.0000  -2.160343  20.320910 11.595419
2918  3 0.0000  -5.091174  16.176089 18.774463
2919  3 0.0000  -8.022005  12.031267 25.953507
2920  3 0.0000 -10.952835   7.886446 33.132551
2921  3 0.0000  -2.160342  32.755373  4.416375
2922  3 0.0000  -5.091173  28.610552 11.595419
2923  3 0.0000  -8.022004  24.465731 18.774463
2924  3 0.0000 -10.952834  20.320909 25.953507
2925  3 0.0000 -13.883665  16.176088 33.132551
2926  3 0.0000  18.355466  -0.403195  4.416375
2927  3 0.0000  15.424635  -4.548016 11.595419
2928  3 0.0000  12.493805  -8.692837 18.774463
2929  3 0.0000   9.562974 -12.837659 25.953507
2930  3 0.0000   6.632143 -16.982480 33.132551
2931  3 0.0000  15.424636   7.886447  4.416375
2932  3 0.0000  12.493806   3.741626 11.595419
2933  3 0.0000   9.562975  -0.403195 18.774463
2934  3 0.0000   6.632144  -4.548017 25.953507
2935  3 0.0000   3.701313  -8.692838 33.132551
2936  3 0.0000  12.493807  16.176089  4.416375
2937  3 0.0000   9.562976  12.031268 11.595419
2938  3 0.0000   6.632145   7.886447 18.774463
2939  3 0.0000   3.701315   3.741625 25.953507
2940  3 0.0000   0.770484  -0.403196 33.132551
2941  3 0.0000   9.562977  24.465731  4.416375
2942  3 0.0000   6.632146  20.320910 11.595419
2943  3 0.0000   3.701316  16.176089 18.774463
2944  3 0.0000   0.770485  12.031267 25.953507
2945  3 0.0000  -2.160346   7.886446 33.132551
2946  3 0.0000   6.632148  32.755373  4.416375
2947  3 0.0000   3.701317  28.610552 11.595419
2948  3 0.0000   0.770486  24.465731 18.774463
2949  3 0.0000  -2.160345  20.320909 25.953507
2950  3 0.0000  -5.091176  16.176088 33.132551
2951  3 0.0000  27.147956  -0.403195  4.416375
2952  3 0.0000  24.217125  -4.548016 11.595419
2953  3 0.0000  21.286294  -8.692837 18.774463
2954  3 0.0000  18.355463 -12.837659 25.953507
2955  3 0.0000  15.424633 -16.982480 33.132551
2956  3 0.0000  24.217126   7.886447  4.416375
2957  3 0.0000  21.286295   3.741626 11.595419
2958  3 0.0000  18.355464  -0.403195 18.774463
2959  3 0.0000  15.424634  -4.548017 25.953507
2960  3 0.0000  12.493803  -8.692838 33.132551
2961  3 0.0000  21.286296  16.176089  4.416375
2962  3 0.0000  18.355466  12.031268 11.595419
2963  3 0.0000  15.424635   7.886447 18.774463
2964  3 0.0000  12.493804   3.741625 25.953507
2965  3 0.0000   9.562973  -0.403196 33.132551
2966  3 0.0000  18.355467  24.465731  4.416375
2967  3 0.0000  15.424636  20.320910 11.595419
2968  3 0.0000  12.493805  16.176089 18.774463
2969  3 0.0000   9.562974  12.031267 25.953507
2970  3 0.0000   6.632144   7.886446 33.132551
2971  3 0.0000  15.424637  32.755373  4.416375
2972  3 0.0000  12.493806  28.610552 11.595419
2973  3 0.0000   9.562976  24.465731 18.774463
2974  3 0.0000   6.632145  20.320909 25.953507
2975  3 0.0000   3.701314  16.176088 33.132551
2976  3 0.0000  35.940445  -0.403195  4.416375
2977  3 0.0000  33.009614  -4.548016 11.595419
2978  3 0.0000  30.078784  -8.692837 18.774463
2979  3 0.0000  27.147953 -12.837659 25.953507
2980  3 0.0000  24.217122 -16.982480 33.132551
2981  3 0.0000  33.009616   7.886447  4.416375
2982  3 0.0000  30.078785   3.741626 11.595419
2983  3 0.0000  27.147954  -0.403195 18.774463
2984  3 0.0000  24.217123  -4.548017 25.953507
2985  3 0.0000  21.286293  -8.692838 33.132551
2986  3 0.0000  30.078786  16.176089  4.416375
2987  3 0.0000  27.147955  12.031268 11.595419
2988  3 0.0000  24.217124   7.886447 18.774463
2989  3 0.0000  21.286294   3.741625 25.953507
2990  3 0.0000  18.355463  -0.403196 33.132551
2991  3 0.0000  27.147956  24.465731  4.416375
2992  3 0.0000  24.217126  20.320910 11.595419
2993  3 0.0000  21.286295  16.176089 18.774463
2994  3 0.0000  18.355464  12.031267 25.953507
2995  3 0.0000  15.424633   7.886446 33.132551
2996  3 0.0000  24.217127  32.755373  4.416375
2997  3 0.0000  21.286296  28.610552 11.595419
2998  3 0.0000  18.355465  24.465731 18.774463
2999  3 0.0000  15.424634  20.320909 25.953507
3000  3 0.0000  12.493804  16.176088 33.132551
3001  3 0.0000  -2.160344  -0.118535  5.320034
3002  3 0.0000  -5.091175  -4.263357 12.499078
3003  3 0.0000  -8.022006  -8.408178 19.678122
3004  3 0.0000 -10.952837 -12.553000 26.857166
3005  3 0.0000 -13.883667 -16.697821 34.036210
3006  3 0.0000  -5.091174   8.171107  5.320034
3007  3 0.0000  -8.022005   4.026285 12.499078
3008  3 0.0000 -10.952836  -0.118536 19.678122
3009  3 0.0000 -13.883666  -4.263358 26.857166
3010  3 0.0000 -16.814497  -8.408179 34.036210
3011  3 0.0000  -8.022004  16.460749  5.320034
3012  3 0.0000 -10.952834  12.315927 12.499078
3013  3 0.0000 -13.883665   8.171106 19.678122
3014  3 0.0000 -16.814496   4.026284 26.857166
3015  3 0.0000 -19.745327  -0.118537 34.036210
3016  3 0.0000 -10.952833  24.750391  5.320034
3017  3 0.0000 -13.883664  20.605569 12.499078
3018  3 0.0000 -16.814495  16.460748 19.678122
3019  3 0.0000 -19.745326  12.315926 26.857166
3020  3 0.0000 -22.676156   8.171105 34.036210
3021  3 0.0000 -13.883663  33.040033  5.320034
3022  3 0.0000 -16.814494  28.895211 12.499078
3023  3 0.0000 -19.745324  24.750390 19.678122
3024  3 0.0000 -22.676155  20.605568 26.857166
3025  3 0.0000 -25.606986  16.460747 34.036210
3026  3 0.0000   6.632145  -0.118535  5.320034
3027  3 0.0000   3.701314  -4.263357 12.499078
3028  3 0.0000   0.770484  -8.408178 19.678122
3029  3 0.0000  -2.160347 -12.553000 26.857166
3030  3 0.0000  -5.091178 -16.697821 34.036210
3031  3 0.0000   3.701316   8.171107  5.320034
3032  3 0.0000   0.770485   4.026285 12.499078
3033  3 0.0000  -2.160346  -0.118536 19.678122
3034  3 0.0000  -5.091177  -4.263358 26.857166
3035  3 0.0000  -8.022007  -8.408179 34.036210
3036  3 0.0000   0.770486  16.460749  5.320034
3037  3 0.0000  -2.160345  12.315927 12.499078
3038  3 0.0000  -5.091176   8.171106 19.678122
3039  3 0.0000  -8.022006   4.026284 26.857166
3040  3 0.0000 -10.952837  -0.118537 34.036210
3041  3 0.0000  -2.160344  24.750391  5.320034
3042  3 0.0000  -5.091174  20.605569 12.499078
3043  3 0.0000  -8.022005  16.460748 19.678122
3044  3 0.0000 -10.952836  12.315926 26.857166
3045  3 0.0000 -13.883667   8.171105 34.036210
3046  3 0.0000  -5.091173  33.040033  5.320034
3047  3 0.0000  -8.022004  28.895211 12.499078
3048  3 0.0000 -10.952835  24.750390 19.678122
3049  3 0.0000 -13.883666  20.605568 26.857166
3050  3 0.0000 -16.814496  16.460747 34.036210
3051  3 0.0000  15.424635  -0.118535  5.320034
3052  3 0.0000  12.493804  -4.263357 12.499078
3053  3 0.0000   9.562973  -8.408178 19.678122
3054  3 0.0000   6.632143 -12.553000 26.857166
3055  3 0.0000   3.701312 -16.697821 34.036210
3056  3 0.0000  12.493805   8.171107  5.320034
3057  3 0.0000   9.562974   4.026285 12.499078
3058  3 0.0000   6.632144  -0.118536 19.678122
3059  3 0.0000   3.701313  -4.263358 26.857166
3060  3 0.0000   0.770482  -8.408179 34.036210
3061  3 0.0000   9.562976  16.460749  5.320034
3062  3 0.0000   6.632145  12.315927 12.499078
3063  3 0.0000   3.701314   8.171106 19.678122
3064  3 0.0000   0.770483   4.026284 26.857166
3065  3 0.0000  -2.160348  -0.118537 34.036210
3066  3 0.0000   6.632146  24.750391  5.320034
3067  3 0.0000   3.701315  20.605569 12.499078
3068  3 0.0000   0.770484  16.460748 19.678122
3069  3 0.0000  -2.160346  12.315926 26.857166
3070  3 0.0000  -5.091177   8.171105 34.036210
3071  3 0.0000   3.701316  33.040033  5.320034
3072  3 0.0000   0.770485  28.895211 12.499078
3073  3 0.0000  -2.160345  24.750390 19.678122
3074  3 0.0000  -5.091176  20.605568 26.857166
3075  3 0.0000  -8.022007  16.460747 34.036210
3076  3 0.0000  24.217124  -0.118535  5.320034
3077  3 0.0000  21.286294  -4.263357 12.499078
3078  3 0.0000  18.355463  -8.408178 19.678122
3079  3 0.0000  15.424632 -12.553000 26.857166
3080  3 0.0000  12.493801 -16.697821 34.036210
3081  3 0.0000  21.286295   8.171107  5.320034
3082  3 0.0000  18.355464   4.026285 12.499078
3083  3 0.0000  15.424633  -0.118536 19.678122
3084  3 0.0000  12.493802  -4.263358 26.857166
3085  3 0.0000   9.562972  -8.408179 34.036210
3086  3 0.0000  18.355465  16.460749  5.320034
3087  3 0.0000  15.424634  12.315927 12.499078
3088  3 0.0000  12.493804   8.171106 19.678122
3089  3 0.0000   9.562973   4.026284 26.857166
3090  3 0.0000   6.632142  -0.118537 34.036210
3091  3 0.0000  15.424635  24.750391  5.320034
3092  3 0.0000  12.493805  20.605569 12.499078
3093  3 0.0000   9.562974  16.460748 19.678122
3094  3 0.0000   6.632143  12.315926 26.857166
3095  3 0.0000   3.701312   8.171105 34.036210
3096  3 0.0000  12.493806  33.040033  5.320034
3097  3 0.0000   9.562975  28.895211 12.499078
3098  3 0.0000   6.632144  24.750390 19.678122
3099  3 0.0000   3.701314  20.605568 26.857166
3100  3 0.0000   0.770483  16.460747 34.036210
3101  3 0.0000  33.009614  -0.118535  5.320034
3102  3 0.0000  30.078783  -4.263357 12.499078
3103  3 0.0000  27.147952  -8.408178 19.678122
3104  3 0.0000  24.217122 -12.553000 26.857166
3105  3 0.0000  21.286291 -16.697821 34.036210
3106  3 0.0000  30.078784   8.171107  5.320034
3107  3 0.0000  27.147954   4.026285 12.499078
3108  3 0.0000  24.217123  -0.118536 19.678122
3109  3 0.0000  21.286292  -4.263358 26.857166
3110  3 0.0000  18.355461  -8.408179 34.036210
3111  3 0.0000  27.147955  16.460749  5.320034
3112  3 0.0000  24.217124  12.315927 12.499078
3113  3 0.0000  21.286293   8.171106 19.678122
3114  3 0.0000  18.355462   4.026284 26.857166
3115  3 0.0000  15.424632  -0.118537 34.036210
3116  3 0.0000  24.217125  24.750391  5.320034
3117  3 0.0000  21.286294  20.605569 12.499078
3118  3 0.0000  18.355464  16.460748 19.678122
3119  3 0.0000  15.424633  12.315926 26.857166
3120  3 0.0000  12.493802   8.171105 34.036210
3121  3 0.0000  21.286295  33.040033  5.320034
3122  3 0.0000  18.355465  28.895211 12.499078
3123  3 0.0000  15.424634  24.750390 19.678122
3124  3 0.0000  12.493803  20.605568 26.857166
3125  3 0.0000   9.562972  16.460747 34.036210
3126  3 0.0000  -2.322470   4.720515  4.458151
3127  3 0.0000  -5.253301   0.575694 11.637195
3128  3 0.0000  -8.184131  -3.569128 18.816239
3129  3 0.0000 -11.114962  -7.713949 25.995283
3130  3 0.0000 -14.045793 -11.858770 33.174327
3131  3 0.0000  -5.253299  13.010157  4.458151
3132  3 0.0000  -8.184130   8.865336 11.637195
3133  3 0.0000 -11.114961   4.720514 18.816239
3134  3 0.0000 -14.045792   0.575693 25.995283
3135  3 0.0000 -16.976622  -3.569128 33.174327
3136  3 0.0000  -8.184129  21.299799  4.458151
3137  3 0.0000 -11.114960  17.154978 11.637195
3138  3 0.0000 -14.045791  13.010156 18.816239
3139  3 0.0000 -16.976621   8.865335 25.995283
3140  3 0.0000 -19.907452   4.720514 33.174327
3141  3 0.0000 -11.114959  29.589441  4.458151
3142  3 0.0000 -14.045789  25.444620 11.637195
3143  3 0.0000 -16.976620  21.299798 18.816239
3144  3 0.0000 -19.907451  17.154977 25.995283
3145  3 0.0000 -22.838282  13.010156 33.174327
3146  3 0.0000 -14.045788  37.879083  4.458151
3147  3 0.0000 -16.976619  33.734262 11.637195
3148  3 0.0000 -19.907450  29.589440 18.816239
3149  3 0.0000 -22.838281  25.444619 25.995283
3150  3 0.0000 -25.769111  21.299798 33.174327
3151  3 0.0000   6.470020   4.720515  4.458151
3152  3 0.0000   3.539189   0.575694 11.637195
3153  3 0.0000   0.608358  -3.569128 18.816239
3154  3 0.0000  -2.322472  -7.713949 25.995283
3155  3 0.0000  -5.253303 -11.858770 33.174327
3156  3 0.0000   3.539190  13.010157  4.458151
3157  3 0.0000   0.608359   8.865336 11.637195
3158  3 0.0000  -2.322471   4.720514 18.816239
3159  3 0.0000  -5.253302   0.575693 25.995283
3160  3 0.0000  -8.184133  -3.569128 33.174327
3161  3 0.0000   0.608361  21.299799  4.458151
3162  3 0.0000  -2.322470  17.154978 11.637195
3163  3 0.0000  -5.253301  13.010156 18.816239
3164  3 0.0000  -8.184132   8.865335 25.995283
3165  3 0.0000 -11.114963   4.720514 33.174327
3166  3 0.0000  -2.322469  29.589441  4.458151
3167  3 0.0000  -5.253300  25.444620 11.637195
3168  3 0.0000  -8.184131  21.299798 18.816239
3169  3 0.0000 -11.114961  17.154977 25.995283
3170  3 0.0000 -14.045792  13.010156 33.174327
3171  3 0.0000  -5.253299  37.879083  4.458151
3172  3 0.0000  -8.184130  33.734262 11.637195
3173  3 0.0000 -11.114960  29.589440 18.816239
3174  3 0.0000 -14.045791  25.444619 25.995283
3175  3 0.0000 -16.976622  21.299798 33.174327
3176  3 0.0000  15.262509   4.720515  4.458151
3177  3 0.0000  12.331679   0.575694 11.637195
3178  3 0.0000   9.400848  -3.569128 18.816239
3179  3 0.0000   6.470017  -7.713949 25.995283
3180  3 0.0000   3.539186 -11.858770 33.174327
3181  3 0.0000  12.331680  13.010157  4.458151
3182  3 0.0000   9.400849   8.865336 11.637195
3183  3 0.0000   6.470018   4.720514 18.816239
3184  3 0.0000   3.539187   0.575693 25.995283
3185  3 0.0000   0.608357  -3.569128 33.174327
3186  3 0.0000   9.400850  21.299799  4.458151
3187  3 0.0000   6.470019  17.154978 11.637195
3188  3 0.0000   3.539189  13.010156 18.816239
3189  3 0.0000   0.608358   8.865335 25.995283
3190  3 0.0000  -2.322473   4.720514 33.174327
3191  3 0.0000   6.470020  29.589441  4.458151
3192  3 0.0000   3.539190  25.444620 11.637195
3193  3 0.0000   0.608359  21.299798 18.816239
3194  3 0.0000  -2.322472  17.154977 25.995283
3195  3 0.0000  -5.253303  13.010156 33.174327
3196  3 0.0000   3.539191  37.879083  4.458151
3197  3 0.0000   0.608360  33.734262 11.637195
3198  3 0.0000  -2.322471  29.589440 18.816239
3199  3 0.0000  -5.253301  25.444619 25.995283
3200  3 0.0000  -8.184132  21.299798 33.174327
3201  3 0.0000  24.054999   4.720515  4.458151
3202  3 0.0000  21.124168   0.575694 11.637195
3203  3 0.0000  18.193337  -3.569128 18.816239
3204  3 0.0000  15.262507  -7.713949 25.995283
3205  3 0.0000  12.331676 -11.858770 33.174327
3206  3 0.0000  21.124169  13.010157  4.458151
3207  3 0.0000  18.193339   8.865336 11.637195
3208  3 0.0000  15.262508   4.720514 18.816239
3209  3 0.0000  12.331677   0.575693 25.995283
3210  3 0.0000   9.400846  -3.569128 33.174327
3211  3 0.0000  18.193340  21.299799  4.458151
3212  3 0.0000  15.262509  17.154978 11.637195
3213  3 0.0000  12.331678  13.010156 18.816239
3214  3 0.0000   9.400847   8.865335 25.995283
3215  3 0.0000   6.470017   4.720514 33.174327
3216  3 0.0000  15.262510  29.589441  4.458151
3217  3 0.0000  12.331679  25.444620 11.637195
3218  3 0.0000   9.400849  21.299798 18.816239
3219  3 0.0000   6.470018  17.154977 25.995283
3220  3 0.0000   3.539187  13.010156 33.174327
3221  3 0.0000  12.331680  37.879083  4.458151
3222  3 0.0000   9.400850  33.734262 11.637195
3223  3 0.0000   6.470019  29.589440 18.816239
3224  3 0.0000   3.539188  25.444619 25.995283
3225  3 0.0000   0.608357  21.299798 33.174327
3226  3 0.0000  32.847489   4.720515  4.458151
3227  3 0.0000  29.916658   0.575694 11.637195
3228  3 0.0000  26.985827  -3.569128 18.816239
3229  3 0.0000  24.054996  -7.713949 25.995283
3230  3 0.0000  21.124165 -11.858770 33.174327
3231  3 0.0000  29.916659  13.010157  4.458151
3232  3 0.0000  26.985828   8.865336 11.637195
3233  3 0.0000  24.054997   4.720514 18.816239
3234  3 0.0000  21.124167   0.575693 25.995283
3235  3 0.0000  18.193336  -3.569128 33.174327
3236  3 0.0000  26.985829  21.299799  4.458151
3237  3 0.0000  24.054998  17.154978 11.637195
3238  3 0.0000  21.124168  13.010156 18.816239
3239  3 0.0000  18.193337   8.865335 25.995283
3240  3 0.0000  15.262506   4.720514 33.174327
3241  3 0.0000  24.055000  29.589441  4.458151
3242  3 0.0000  21.124169  25.444620 11.637195
3243  3 0.0000  18.193338  21.299798 18.816239
3244  3 0.0000  15.262507  17.154977 25.995283
3245  3 0.0000  12.331677  13.010156 33.174327
3246  3 0.0000  21.124170  37.879083  4.458151
3247  3 0.0000  18.193339  33.734262 11.637195
3248  3 0.0000  15.262508  29.589440 18.816239
3249  3 0.0000  12.331678  25.444619 25.995283
3250  3 0.0000   9.400847  21.299798 33.174327
3251  3 0.0000   2.293863   4.736844  2.762671
3252  3 0.0000  -0.636967   0.592022  9.941715
3253  3 0.0000  -3.567798  -3.552799 17.120759
3254  3 0.0000  -6.498629  -7.697620 24.299803
3255  3 0.0000  -9.429460 -11.842442 31.478847
3256  3 0.0000  -0.636966  13.026486  2.762671
3257  3 0.0000  -3.567797   8.881664  9.941715
3258  3 0.0000  -6.498628   4.736843 17.120759
3259  3 0.0000  -9.429459   0.592022 24.299803
3260  3 0.0000 -12.360289  -3.552800 31.478847
3261  3 0.0000  -3.567796  21.316128  2.762671
3262  3 0.0000  -6.498627  17.171306  9.941715
3263  3 0.0000  -9.429457  13.026485 17.120759
3264  3 0.0000 -12.360288   8.881664 24.299803
3265  3 0.0000 -15.291119   4.736842 31.478847
3266  3 0.0000  -6.498626  29.605770  2.762671
3267  3 0.0000  -9.429456  25.460948  9.941715
3268  3 0.0000 -12.360287  21.316127 17.120759
3269  3 0.0000 -15.291118  17.171306 24.299803
3270  3 0.0000 -18.221949  13.026484 31.478847
3271  3 0.0000  -9.429455  37.895412  2.762671
3272  3 0.0000 -12.360286  33.750590  9.941715
3273  3 0.0000 -15.291117  29.605769 17.120759
3274  3 0.0000 -18.221947  25.460948 24.299803
3275  3 0.0000 -21.152778  21.316126 31.478847
3276  3 0.0000  11.086353   4.736844  2.762671
3277  3 0.0000   8.155522   0.592022  9.941715
3278  3 0.0000   5.224691  -3.552799 17.120759
3279  3 0.0000   2.293861  -7.697620 24.299803
3280  3 0.0000  -0.636970 -11.842442 31.478847
3281  3 0.0000   8.155523  13.026486  2.762671
3282  3 0.0000   5.224693   8.881664  9.941715
3283  3 0.0000   2.293862   4.736843 17.120759
3284  3 0.0000  -0.636969   0.592022 24.299803
3285  3 0.0000  -3.567800  -3.552800 31.478847
3286  3 0.0000   5.224694  21.316128  2.762671
3287  3 0.0000   2.293863  17.171306  9.941715
3288  3 0.0000  -0.636968  13.026485 17.120759
3289  3 0.0000  -3.567799   8.881664 24.299803
3290  3 0.0000  -6.498629   4.736842 31.478847
3291  3 0.0000   2.293864  29.605770  2.762671
3292  3 0.0000  -0.636967  25.460948  9.941715
3293  3 0.0000  -3.567797  21.316127 17.120759
3294  3 0.0000  -6.498628  17.171306 24.299803
3295  3 0.0000  -9.429459  13.026484 31.478847
3296  3 0.0000  -0.636966  37.895412  2.762671
3297  3 0.0000  -3.567796  33.750590  9.941715
3298  3 0.0000  -6.498627  29.605769 17.120759
3299  3 0.0000  -9.429458  25.460948 24.299803
3300  3 0.0000 -12.360289  21.316126 31.478847
3301  3 0.0000  19.878843   4.736844  2.762671
3302  3 0.0000  16.948012   0.592022  9.941715
3303  3 0.0000  14.017181  -3.552799 17.120759
3304  3 0.0000  11.086350  -7.697620 24.299803
3305  3 0.0000   8.155519 -11.842442 31.478847
3306  3 0.0000  16.948013  13.026486  2.762671
3307  3 0.0000  14.017182   8.881664  9.941715
3308  3 0.0000  11.086351   4.736843 17.120759
3309  3 0.0000   8.155521   0.592022 24.299803
3310  3 0.0000   5.224690  -3.552800 31.478847
3311  3 0.0000  14.017183  21.316128  2.762671
3312  3 0.0000  11.086352  17.171306  9.941715
3313  3 0.0000   8.155522  13.026485 17.120759
3314  3 0.0000   5.224691   8.881664 24.299803
3315  3 0.0000   2.293860   4.736842 31.478847
3316  3 0.0000  11.086354  29.605770  2.762671
3317  3 0.0000   8.155523  25.460948  9.941715
3318  3 0.0000   5.224692  21.316127 17.120759
3319  3 0.0000   2.293861  17.171306 24.299803
3320  3 0.0000  -0.636969  13.026484 31.478847
3321  3 0.0000   8.155524  37.895412  2.762671
3322  3 0.0000   5.224693  33.750590  9.941715
3323  3 0.0000   2.293862  29.605769 17.120759
3324  3 0.0000  -0.636968  25.460948 24.299803
3325  3 0.0000  -3.567799  21.316126 31.478847
3326  3 0.0000  28.671332   4.736844  2.762671
3327  3 0.0000  25.740501   0.592022  9.941715
3328  3 0.0000  22.809671  -3.552799 17.120759
3329  3 0.0000  19.878840  -7.697620 24.299803
3330  3 0.0000  16.948009 -11.842442 31.478847
3331  3 0.0000  25.740502  13.026486  2.762671
3332  3 0.0000  22.809672   8.881664  9.941715
3333  3 0.0000  19.878841   4.736843 17.120759
3334  3 0.0000  16.948010   0.592022 24.299803
3335  3 0.0000  14.017179  -3.552800 31.478847
3336  3 0.0000  22.809673  21.316128  2.762671
3337  3 0.0000  19.878842  17.171306  9.941715
3338  3 0.0000  16.948011  13.026485 17.120759
3339  3 0.0000  14.017181   8.881664 24.299803
3340  3 0.0000  11.086350   4.736842 31.478847
3341  3 0.0000  19.878843  29.605770  2.762671
3342  3 0.0000  16.948012  25.460948  9.941715
3343  3 0.0000  14.017182  21.316127 17.120759
3344  3 0.0000  11.086351  17.171306 24.299803
3345  3 0.0000   8.155520  13.026484 31.478847
3346  3 0.0000  16.948014  37.895412  2.762671
3347  3 0.0000  14.017183  33.750590  9.941715
3348  3 0.0000  11.086352  29.605769 17.120759
3349  3 0.0000   8.155521  25.460948 24.299803
3350  3 0.0000   5.224691  21.316126 31.478847
3351  3 0.0000  37.463822   4.736844  2.762671
3352  3 0.0000  34.532991   0.592022  9.941715
3353  3 0.0000  31.602160  -3.552799 17.120759
3354  3 0.0000  28.671329  -7.697620 24.299803
3355  3 0.0000  25.740499 -11.842442 31.478847
3356  3 0.0000  34.532992  13.026486  2.762671
3357  3 0.0000  31.602161   8.881664  9.941715
3358  3 0.0000  28.671331   4.736843 17.120759
3359  3 0.0000  25.740500   0.592022 24.299803
3360  3 0.0000  22.809669  -3.552800 31.478847
3361  3 0.0000  31.602162  21.316128  2.762671
3362  3 0.0000  28.671332  17.171306  9.941715
3363  3 0.0000  25.740501  13.026485 17.120759
3364  3 0.0000  22.809670   8.881664 24.299803
3365  3 0.0000  19.878839   4.736842 31.478847
3366  3 0.0000  28.671333  29.605770  2.762671
3367  3 0.0000  25.740502  25.460948  9.941715
3368  3 0.0000  22.809671  21.316127 17.120759
3369  3 0.0000  19.878840  17.171306 24.299803
3370  3 0.0000  16.948010  13.026484 31.478847
3371  3 0.0000  25.740503  37.895412  2.762671
3372  3 0.0000  22.809672  33.750590  9.941715
3373  3 0.0000  19.878842  29.605769 17.120759
3374  3 0.0000  16.948011  25.460948 24.299803
3375  3 0.0000  14.017180  21.316126 31.478847
3376  3 0.0000   5.224695   4.168944  1.695480
3377  3 0.0000   2.293865   0.024122  8.874524
3378  3 0.0000  -0.636966  -4.120699 16.053568
3379  3 0.0000  -3.567797  -8.265520 23.232612
3380  3 0.0000  -6.498628 -12.410342 30.411656
3381  3 0.0000   2.293866  12.458586  1.695480
3382  3 0.0000  -0.636965   8.313764  8.874524
3383  3 0.0000  -3.567796   4.168943 16.053568
3384  3 0.0000  -6.498626   0.024122 23.232612
3385  3 0.0000  -9.429457  -4.120700 30.411656
3386  3 0.0000  -0.636964  20.748228  1.695480
3387  3 0.0000  -3.567795  16.603406  8.874524
3388  3 0.0000  -6.498625  12.458585 16.053568
3389  3 0.0000  -9.429456   8.313764 23.232612
3390  3 0.0000 -12.360287   4.168942 30.411656
3391  3 0.0000  -3.567793  29.037870  1.695480
3392  3 0.0000  -6.498624  24.893048  8.874524
3393  3 0.0000  -9.429455  20.748227 16.053568
3394  3 0.0000 -12.360286  16.603406 23.232612
3395  3 0.0000 -15.291117  12.458584 30.411656
3396  3 0.0000  -6.498623  37.327512  1.695480
3397  3 0.0000  -9.429454  33.182690  8.874524
3398  3 0.0000 -12.360285  29.037869 16.053568
3399  3 0.0000 -15.291115  24.893048 23.232612
3400  3 0.0000 -18.221946  20.748226 30.411656
3401  3 0.0000  14.017185   4.168944  1.695480
3402  3 0.0000  11.086354   0.024122  8.874524
3403  3 0.0000   8.155523  -4.120699 16.053568
3404  3 0.0000   5.224693  -8.265520 23.232612
3405  3 0.0000   2.293862 -12.410342 30.411656
3406  3 0.0000  11.086355  12.458586  1.695480
3407  3 0.0000   8.155525   8.313764  8.874524
3408  3 0.0000   5.224694   4.168943 16.053568
3409  3 0.0000   2.293863   0.024122 23.232612
3410  3 0.0000  -0.636968  -4.120700 30.411656
3411  3 0.0000   8.155526  20.748228  1.695480
3412  3 0.0000   5.224695  16.603406  8.874524
3413  3 0.0000   2.293864  12.458585 16.053568
3414  3 0.0000  -0.636967   8.313764 23.232612
3415  3 0.0000  -3.567797   4.168942 30.411656
3416  3 0.0000   5.224696  29.037870  1.695480
3417  3 0.0000   2.293865  24.893048  8.874524
3418  3 0.0000  -0.636965  20.748227 16.053568
3419  3 0.0000  -3.567796  16.603406 23.232612
3420  3 0.0000  -6.498627  12.458584 30.411656
3421  3 0.0000   2.293866  37.327512  1.695480
3422  3 0.0000  -0.636964  33.182690  8.874524
3423  3 0.0000  -3.567795  29.037869 16.053568
3424  3 0.0000  -6.498626  24.893048 23.232612
3425  3 0.0000  -9.429457  20.748226 30.411656
3426  3 0.0000  22.809675   4.168944  1.695480
3427  3 0.0000  19.878844   0.024122  8.874524
3428  3 0.0000  16.948013  -4.120699 16.053568
3429  3 0.0000  14.017182  -8.265520 23.232612
3430  3 0.0000  11.086352 -12.410342 30.411656
3431  3 0.0000  19.878845  12.458586  1.695480
3432  3 0.0000  16.948014   8.313764  8.874524
3433  3 0.0000  14.017183   4.168943 16.053568
3434  3 0.0000  11.086353   0.024122 23.232612
3435  3 0.0000   8.155522  -4.120700 30.411656
3436  3 0.0000  16.948015  20.748228  1.695480
3437  3 0.0000  14.017185  16.603406  8.874524
3438  3 0.0000  11.086354  12.458585 16.053568
3439  3 0.0000   8.155523   8.313764 23.232612
3440  3 0.0000   5.224692   4.168942 30.411656
3441  3 0.0000  14.017186  29.037870  1.695480
3442  3 0.0000  11.086355  24.893048  8.874524
3443  3 0.0000   8.155524  20.748227 16.053568
3444  3 0.0000   5.224693  16.603406 23.232612
3445  3 0.0000   2.293863  12.458584 30.411656
3446  3 0.0000  11.086356  37.327512  1.695480
3447  3 0.0000   8.155525  33.182690  8.874524
3448  3 0.0000   5.224694  29.037869 16.053568
3449  3 0.0000   2.293864  24.893048 23.232612
3450  3 0.0000  -0.636967  20.748226 30.411656
3451  3 0.0000  31.602164   4.168944  1.695480
3452  3 0.0000  28.671333   0.024122  8.874524
3453  3 0.0000  25.740503  -4.120699 16.053568
3454  3 0.0000  22.809672  -8.265520 23.232612
3455  3 0.0000  19.878841 -12.410342 30.411656
3456  3 0.0000  28.671334  12.458586  1.695480
3457  3 0.0000  25.740504   8.313764  8.874524
3458  3 0.0000  22.809673   4.168943 16.053568
3459  3 0.0000  19.878842   0.024122 23.232612
3460  3 0.0000  16.948011  -4.120700 30.411656
3461  3 0.0000  25.740505  20.748228  1.695480
3462  3 0.0000  22.809674  16.603406  8.874524
3463  3 0.0000  19.878843  12.458585 16.053568
3464  3 0.0000  16.948013   8.313764 23.232612
3465  3 0.0000  14.017182   4.168942 30.411656
3466  3 0.0000  22.809675  29.037870  1.695480
3467  3 0.0000  19.878844  24.893048  8.874524
3468  3 0.0000  16.948014  20.748227 16.053568
3469  3 0.0000  14.017183  16.603406 23.232612
3470  3 0.0000  11.086352  12.458584 30.411656
3471  3 0.0000  19.878846  37.327512  1.695480
3472  3 0.0000  16.948015  33.182690  8.874524
3473  3 0.0000  14.017184  29.037869 16.053568
3474  3 0.0000  11.086353  24.893048 23.232612
3475  3 0.0000   8.155523  20.748226 30.411656
3476  3 0.0000  40.394654   4.168944  1.695480
3477  3 0.0000  37.463823   0.024122  8.874524
3478  3 0.0000  34.532992  -4.120699 16.053568
3479  3 0.0000  31.602161  -8.265520 23.232612
3480  3 0.0000  28.671331 -12.410342 30.411656
3481  3 0.0000  37.463824  12.458586  1.695480
3482  3 0.0000  34.532993   8.313764  8.874524
3483  3 0.0000  31.602163   4.168943 16.053568
3484  3 0.0000  28.671332   0.024122 23.232612
3485  3 0.0000  25.740501  -4.120700 30.411656
3486  3 0.0000  34.532994  20.748228  1.695480
3487  3 0.0000  31.602164  16.603406  8.874524
3488  3 0.0000  28.671333  12.458585 16.053568
3489  3 0.0000  25.740502   8.313764 23.232612
3490  3 0.0000  22.809671   4.168942 30.411656
3491  3 0.0000  31.602165  29.037870  1.695480
3492  3 0.0000  28.671334  24.893048  8.874524
3493  3 0.0000  25.740503  20.748227 16.053568
3494  3 0.0000  22.809673  16.603406 23.232612
3495  3 0.0000  19.878842  12.458584 30.411656
3496  3 0.0000  28.671335  37.327512  1.695480
3497  3 0.0000  25.740504  33.182690  8.874524
3498  3 0.0000  22.809674  29.037869 16.053568
3499  3 0.0000  19.878843  24.893048 23.232612
3500  3 0.0000  16.948012  20.748226 30.411656
3501  3 0.0000  -0.636962   3.528673  2.720891
3502  3 0.0000  -3.567792  -0.616149  9.899935
3503  3 0.0000  -6.498623  -4.760970 17.078979
3504  3 0.0000  -9.429454  -8.905791 24.258023
3505  3 0.0000 -12.360285 -13.050613 31.437067
3506  3 0.0000  -3.567791  11.818315  2.720891
3507  3 0.0000  -6.498622   7.673493  9.899935
3508  3 0.0000  -9.429453   3.528672 17.078979
3509  3 0.0000 -12.360284  -0.616149 24.258023
3510  3 0.0000 -15.291114  -4.760971 31.437067
3511  3 0.0000  -6.498621  20.107957  2.720891
3512  3 0.0000  -9.429452  15.963135  9.899935
3513  3 0.0000 -12.360282  11.818314 17.078979
3514  3 0.0000 -15.291113   7.673493 24.258023
3515  3 0.0000 -18.221944   3.528671 31.437067
3516  3 0.0000  -9.429451  28.397599  2.720891
3517  3 0.0000 -12.360281  24.252777  9.899935
3518  3 0.0000 -15.291112  20.107956 17.078979
3519  3 0.0000 -18.221943  15.963135 24.258023
3520  3 0.0000 -21.152774  11.818313 31.437067
3521  3 0.0000 -12.360280  36.687241  2.720891
3522  3 0.0000 -15.291111  32.542419  9.899935
3523  3 0.0000 -18.221942  28.397598 17.078979
3524  3 0.0000 -21.152772  24.252777 24.258023
3525  3 0.0000 -24.083603  20.107955 31.437067
3526  3 0.0000   8.155528   3.528673  2.720891
3527  3 0.0000   5.224697  -0.616149  9.899935
3528  3 0.0000   2.293866  -4.760970 17.078979
3529  3 0.0000  -0.636964  -8.905791 24.258023
3530  3 0.0000  -3.567795 -13.050613 31.437067
3531  3 0.0000   5.224698  11.818315  2.720891
3532  3 0.0000   2.293868   7.673493  9.899935
3533  3 0.0000  -0.636963   3.528672 17.078979
3534  3 0.0000  -3.567794  -0.616149 24.258023
3535  3 0.0000  -6.498625  -4.760971 31.437067
3536  3 0.0000   2.293869  20.107957  2.720891
3537  3 0.0000  -0.636962  15.963135  9.899935
3538  3 0.0000  -3.567793  11.818314 17.078979
3539  3 0.0000  -6.498624   7.673493 24.258023
3540  3 0.0000  -9.429454   3.528671 31.437067
3541  3 0.0000  -0.636961  28.397599  2.720891
3542  3 0.0000  -3.567792  24.252777  9.899935
3543  3 0.0000  -6.498623  20.107956 17.078979
3544  3 0.0000  -9.429453  15.963135 24.258023
3545  3 0.0000 -12.360284  11.818313 31.437067
3546  3 0.0000  -3.567791  36.687241  2.720891
3547  3 0.0000  -6.498621  32.542419  9.899935
3548  3 0.0000  -9.429452  28.397598 17.078979
3549  3 0.0000 -12.360283  24.252777 24.258023
3550  3 0.0000 -15.291114  20.107955 31.437067
3551  3 0.0000  16.948017   3.528673  2.720891
3552  3 0.0000  14.017187  -0.616149  9.899935
3553  3 0.0000  11.086356  -4.760970 17.078979
3554  3 0.0000   8.155525  -8.905791 24.258023
3555  3 0.0000   5.224694 -13.050613 31.437067
3556  3 0.0000  14.017188  11.818315  2.720891
3557  3 0.0000  11.086357   7.673493  9.899935
3558  3 0.0000   8.155526   3.528672 17.078979
3559  3 0.0000   5.224696  -0.616149 24.258023
3560  3 0.0000   2.293865  -4.760971 31.437067
3561  3 0.0000  11.086358  20.107957  2.720891
3562  3 0.0000   8.155527  15.963135  9.899935
3563  3 0.0000   5.224697  11.818314 17.078979
3564  3 0.0000   2.293866   7.673493 24.258023
3565  3 0.0000  -0.636965   3.528671 31.437067
3566  3 0.0000   8.155529  28.397599  2.720891
3567  3 0.0000   5.224698  24.252777  9.899935
3568  3 0.0000   2.293867  20.107956 17.078979
3569  3 0.0000  -0.636964  15.963135 24.258023
3570  3 0.0000  -3.567794  11.818313 31.437067
3571  3 0.0000   5.224699  36.687241  2.720891
3572  3 0.0000   2.293868  32.542419  9.899935
3573  3 0.0000  -0.636963  28.397598 17.078979
3574  3 0.0000  -3.567793  24.252777 24.258023
3575  3 0.0000  -6.498624  20.107955 31.437067
3576  3 0.0000  25.740507   3.528673  2.720891
3577  3 0.0000  22.809676  -0.616149  9.899935
3578  3 0.0000  19.878846  -4.760970 17.078979
3579  3 0.0000  16.948015  -8.905791 24.258023
3580  3 0.0000  14.017184 -13.050613 31.437067
3581  3 0.0000  22.809677  11.818315  2.720891
3582  3 0.0000  19.878847   7.673493  9.899935
3583  3 0.0000  16.948016   3.528672 17.078979
3584  3 0.0000  14.017185  -0.616149 24.258023
3585  3 0.0000  11.086354  -4.760971 31.437067
3586  3 0.0000  19.878848  20.107957  2.720891
3587  3 0.0000  16.948017  15.963135  9.899935
3588  3 0.0000  14.017186  11.818314 17.078979
3589  3 0.0000  11.086355   7.673493 24.258023
3590  3 0.0000   8.155525   3.528671 31.437067
3591  3 0.0000  16.948018  28.397599  2.720891
3592  3 0.0000  14.017187  24.252777  9.899935
3593  3 0.0000  11.086357  20.107956 17.078979
3594  3 0.0000   8.155526  15.963135 24.258023
3595  3 0.0000   5.224695  11.818313 31.437067
3596  3 0.0000  14.017188  36.687241  2.720891
3597  3 0.0000  11.086358  32.542419  9.899935
3598  3 0.0000   8.155527  28.397598 17.078979
3599  3 0.0000   5.224696  24.252777 24.258023
3600  3 0.0000   2.293865  20.107955 31.437067
3601  3 0.0000  34.532997   3.528673  2.720891
3602  3 0.0000  31.602166  -0.616149  9.899935
3603  3 0.0000  28.671335  -4.760970 17.078979
3604  3 0.0000  25.740504  -8.905791 24.258023
3605  3 0.0000  22.809674 -13.050613 31.437067
3606  3 0.0000  31.602167  11.818315  2.720891
3607  3 0.0000  28.671336   7.673493  9.899935
3608  3 0.0000  25.740505   3.528672 17.078979
3609  3 0.0000  22.809675  -0.616149 24.258023
3610  3 0.0000  19.878844  -4.760971 31.437067
3611  3 0.0000  28.671337  20.107957  2.720891
3612  3 0.0000  25.740507  15.963135  9.899935
3613  3 0.0000  22.809676  11.818314 17.078979
3614  3 0.0000  19.878845   7.673493 24.258023
3615  3 0.0000  16.948014   3.528671 31.437067
3616  3 0.0000  25.740508  28.397599  2.720891
3617  3 0.0000  22.809677  24.252777  9.899935
3618  3 0.0000  19.878846  20.107956 17.078979
3619  3 0.0000  16.948015  15.963135 24.258023
3620  3 0.0000  14.017185  11.818313 31.437067
3621  3 0.0000  22.809678  36.687241  2.720891
3622  3 0.0000  19.878847  32.542419  9.899935
3623  3 0.0000  16.948017  28.397598 17.078979
3624  3 0.0000  14.017186  24.252777 24.258023
3625  3 0.0000  11.086355  20.107955 31.437067
3626  3 0.0000   3.539188   2.068514  1.859011
3627  3 0.0000   0.608357  -2.076307  9.038055
3628  3 0.0000  -2.322474  -6.221129 16.217099
3629  3 0.0000  -5.253304 -10.365950 23.396143
3630  3 0.0000  -8.184135 -14.510772 30.575187
3631  3 0.0000   0.608358  10.358156  1.859011
3632  3 0.0000  -2.322472   6.213335  9.038055
3633  3 0.0000  -5.253303   2.068513 16.217099
3634  3 0.0000  -8.184134  -2.076308 23.396143
3635  3 0.0000 -11.114965  -6.221130 30.575187
3636  3 0.0000  -2.322471  18.647798  1.859011
3637  3 0.0000  -5.253302  14.502977  9.038055
3638  3 0.0000  -8.184133  10.358155 16.217099
3639  3 0.0000 -11.114964   6.213334 23.396143
3640  3 0.0000 -14.045794   2.068512 30.575187
3641  3 0.0000  -5.253301  26.937440  1.859011
3642  3 0.0000  -8.184132  22.792619  9.038055
3643  3 0.0000 -11.114962  18.647797 16.217099
3644  3 0.0000 -14.045793  14.502976 23.396143
3645  3 0.0000 -16.976624  10.358154 30.575187
3646  3 0.0000  -8.184131  35.227082  1.859011
3647  3 0.0000 -11.114961  31.082261  9.038055
3648  3 0.0000 -14.045792  26.937439 16.217099
3649  3 0.0000 -16.976623  22.792618 23.396143
3650  3 0.0000 -19.907454  18.647796 30.575187
3651  3 0.0000  12.331677   2.068514  1.859011
3652  3 0.0000   9.400847  -2.076307  9.038055
3653  3 0.0000   6.470016  -6.221129 16.217099
3654  3 0.0000   3.539185 -10.365950 23.396143
3655  3 0.0000   0.608354 -14.510772 30.575187
3656  3 0.0000   9.400848  10.358156  1.859011
3657  3 0.0000   6.470017   6.213335  9.038055
3658  3 0.0000   3.539186   2.068513 16.217099
3659  3 0.0000   0.608356  -2.076308 23.396143
3660  3 0.0000  -2.322475  -6.221130 30.575187
3661  3 0.0000   6.470018  18.647798  1.859011
3662  3 0.0000   3.539187  14.502977  9.038055
3663  3 0.0000   0.608357  10.358155 16.217099
3664  3 0.0000  -2.322474   6.213334 23.396143
3665  3 0.0000  -5.253305   2.068512 30.575187
3666  3 0.0000   3.539189  26.937440  1.859011
3667  3 0.0000   0.608358  22.792619  9.038055
3668  3 0.0000  -2.322473  18.647797 16.217099
3669  3 0.0000  -5.253304  14.502976 23.396143
3670  3 0.0000  -8.184134  10.358154 30.575187
3671  3 0.0000   0.608359  35.227082  1.859011
3672  3 0.0000  -2.322472  31.082261  9.038055
3673  3 0.0000  -5.253303  26.937439 16.217099
3674  3 0.0000  -8.184133  22.792618 23.396143
3675  3 0.0000 -11.114964  18.647796 30.575187
3676  3 0.0000  21.124167   2.068514  1.859011
3677  3 0.0000  18.193336  -2.076307  9.038055
3678  3 0.0000  15.262506  -6.221129 16.217099
3679  3 0.0000  12.331675 -10.365950 23.396143
3680  3 0.0000   9.400844 -14.510772 30.575187
3681  3 0.0000  18.193337  10.358156  1.859011
3682  3 0.0000  15.262507   6.213335  9.038055
3683  3 0.0000  12.331676   2.068513 16.217099
3684  3 0.0000   9.400845  -2.076308 23.396143
3685  3 0.0000   6.470014  -6.221130 30.575187
3686  3 0.0000  15.262508  18.647798  1.859011
3687  3 0.0000  12.331677  14.502977  9.038055
3688  3 0.0000   9.400846  10.358155 16.217099
3689  3 0.0000   6.470016   6.213334 23.396143
3690  3 0.0000   3.539185   2.068512 30.575187
3691  3 0.0000  12.331678  26.937440  1.859011
3692  3 0.0000   9.400847  22.792619  9.038055
3693  3 0.0000   6.470017  18.647797 16.217099
3694  3 0.0000   3.539186  14.502976 23.396143
3695  3 0.0000   0.608355  10.358154 30.575187
3696  3 0.0000   9.400849  35.227082  1.859011
3697  3 0.0000   6.470018  31.082261  9.038055
3698  3 0.0000   3.539187  26.937439 16.217099
3699  3 0.0000   0.608356  22.792618 23.396143
3700  3 0.0000  -2.322475  18.647796 30.575187
3701  3 0.0000  29.916657   2.068514  1.859011
3702  3 0.0000  26.985826  -2.076307  9.038055
3703  3 0.0000  24.054995  -6.221129 16.217099
3704  3 0.0000  21.124164 -10.365950 23.396143
3705  3 0.0000  18.193334 -14.510772 30.575187
3706  3 0.0000  26.985827  10.358156  1.859011
3707  3 0.0000  24.054996   6.213335  9.038055
3708  3 0.0000  21.124165   2.068513 16.217099
3709  3 0.0000  18.193335  -2.076308 23.396143
3710  3 0.0000  15.262504  -6.221130 30.575187
3711  3 0.0000  24.054997  18.647798  1.859011
3712  3 0.0000  21.124167  14.502977  9.038055
3713  3 0.0000  18.193336  10.358155 16.217099
3714  3 0.0000  15.262505   6.213334 23.396143
3715  3 0.0000  12.331674   2.068512 30.575187
3716  3 0.0000  21.124168  26.937440  1.859011
3717  3 0.0000  18.193337  22.792619  9.038055
3718  3 0.0000  15.262506  18.647797 16.217099
3719  3 0.0000  12.331675  14.502976 23.396143
3720  3 0.0000   9.400845  10.358154 30.575187
3721  3 0.0000  18.193338  35.227082  1.859011
3722  3 0.0000  15.262507  31.082261  9.038055
3723  3 0.0000  12.331677  26.937439 16.217099
3724  3 0.0000   9.400846  22.792618 23.396143
3725  3 0.0000   6.470015  18.647796 30.575187
3726  3 0.0000  38.709146   2.068514  1.859011
3727  3 0.0000  35.778315  -2.076307  9.038055
3728  3 0.0000  32.847485  -6.221129 16.217099
3729  3 0.0000  29.916654 -10.365950 23.396143
3730  3 0.0000  26.985823 -14.510772 30.575187
3731  3 0.0000  35.778317  10.358156  1.859011
3732  3 0.0000  32.847486   6.213335  9.038055
3733  3 0.0000  29.916655   2.068513 16.217099
3734  3 0.0000  26.985824  -2.076308 23.396143
3735  3 0.0000  24.054994  -6.221130 30.575187
3736  3 0.0000  32.847487  18.647798  1.859011
3737  3 0.0000  29.916656  14.502977  9.038055
3738  3 0.0000  26.985825  10.358155 16.217099
3739  3 0.0000  24.054995   6.213334 23.396143
3740  3 0.0000  21.124164   2.068512 30.575187
3741  3 0.0000  29.916657  26.937440  1.859011
3742  3 0.0000  26.985827  22.792619  9.038055
3743  3 0.0000  24.054996  18.647797 16.217099
3744  3 0.0000  21.124165  14.502976 23.396143
3745  3 0.0000  18.193334  10.358154 30.575187
3746  3 0.0000  26.985828  35.227082  1.859011
3747  3 0.0000  24.054997  31.082261  9.038055
3748  3 0.0000  21.124166  26.937439 16.217099
3749  3 0.0000  18.193335  22.792618 23.396143
3750  3 0.0000  15.262505  18.647796 30.575187
3751  3 0.0000   5.119775  -0.481277  2.557359
3752  3 0.0000   2.188944  -4.626099  9.736403
3753  3 0.0000  -0.741886  -8.770920 16.915447
3754  3 0.0000  -3.672717 -12.915742 24.094491
3755  3 0.0000  -6.603548 -17.060563 31.273535
3756  3 0.0000   2.188945   7.808365  2.557359
3757  3 0.0000  -0.741885   3.663543  9.736403
3758  3 0.0000  -3.672716  -0.481278 16.915447
3759  3 0.0000  -6.603547  -4.626100 24.094491
3760  3 0.0000  -9.534378  -8.770921 31.273535
3761  3 0.0000  -0.741884  16.098007  2.557359
3762  3 0.0000  -3.672715  11.953185  9.736403
3763  3 0.0000  -6.603546   7.808364 16.915447
3764  3 0.0000  -9.534377   3.663542 24.094491
3765  3 0.0000 -12.465207  -0.481279 31.273535
3766  3 0.0000  -3.672714  24.387649  2.557359
3767  3 0.0000  -6.603545  20.242827  9.736403
3768  3 0.0000  -9.534375  16.098006 16.915447
3769  3 0.0000 -12.465206  11.953184 24.094491
3770  3 0.0000 -15.396037   7.808363 31.273535
3771  3 0.0000  -6.603544  32.677291  2.557359
3772  3 0.0000  -9.534374  28.532469  9.736403
3773  3 0.0000 -12.465205  24.387648 16.915447
3774  3 0.0000 -15.396036  20.242826 24.094491
3775  3 0.0000 -18.326867  16.098005 31.273535
3776  3 0.0000  13.912265  -0.481277  2.557359
3777  3 0.0000  10.981434  -4.626099  9.736403
3778  3 0.0000   8.050603  -8.770920 16.915447
3779  3 0.0000   5.119772 -12.915742 24.094491
3780  3 0.0000   2.188942 -17.060563 31.273535
3781  3 0.0000  10.981435   7.808365  2.557359
3782  3 0.0000   8.050604   3.663543  9.736403
3783  3 0.0000   5.119773  -0.481278 16.915447
3784  3 0.0000   2.188943  -4.626100 24.094491
3785  3 0.0000  -0.741888  -8.770921 31.273535
3786  3 0.0000   8.050605  16.098007  2.557359
3787  3 0.0000   5.119775  11.953185  9.736403
3788  3 0.0000   2.188944   7.808364 16.915447
3789  3 0.0000  -0.741887   3.663542 24.094491
3790  3 0.0000  -3.672718  -0.481279 31.273535
3791  3 0.0000   5.119776  24.387649  2.557359
3792  3 0.0000   2.188945  20.242827  9.736403
3793  3 0.0000  -0.741886  16.098006 16.915447
3794  3 0.0000  -3.672717  11.953184 24.094491
3795  3 0.0000  -6.603547   7.808363 31.273535
3796  3 0.0000   2.188946  32.677291  2.557359
3797  3 0.0000  -0.741885  28.532469  9.736403
3798  3 0.0000  -3.672715  24.387648 16.915447
3799  3 0.0000  -6.603546  20.242826 24.094491
3800  3 0.0000  -9.534377  16.098005 31.273535
3801  3 0.0000  22.704754  -0.481277  2.557359
3802  3 0.0000  19.773923  -4.626099  9.736403
3803  3 0.0000  16.843093  -8.770920 16.915447
3804  3 0.0000  13.912262 -12.915742 24.094491
3805  3 0.0000  10.981431 -17.060563 31.273535
3806  3 0.0000  19.773925   7.808365  2.557359
3807  3 0.0000  16.843094   3.663543  9.736403
3808  3 0.0000  13.912263  -0.481278 16.915447
3809  3 0.0000  10.981432  -4.626100 24.094491
3810  3 0.0000   8.050602  -8.770921 31.273535
3811  3 0.0000  16.843095  16.098007  2.557359
3812  3 0.0000  13.912264  11.953185  9.736403
3813  3 0.0000  10.981433   7.808364 16.915447
3814  3 0.0000   8.050603   3.663542 24.094491
3815  3 0.0000   5.119772  -0.481279 31.273535
3816  3 0.0000  13.912265  24.387649  2.557359
3817  3 0.0000  10.981435  20.242827  9.736403
3818  3 0.0000   8.050604  16.098006 16.915447
3819  3 0.0000   5.119773  11.953184 24.094491
3820  3 0.0000   2.188942   7.808363 31.273535
3821  3 0.0000  10.981436  32.677291  2.557359
3822  3 0.0000   8.050605  28.532469  9.736403
3823  3 0.0000   5.119774  24.387648 16.915447
3824  3 0.0000   2.188943  20.242826 24.094491
3825  3 0.0000  -0.741887  16.098005 31.273535
3826  3 0.0000  31.497244  -0.481277  2.557359
3827  3 0.0000  28.566413  -4.626099  9.736403
3828  3 0.0000  25.635582  -8.770920 16.915447
3829  3 0.0000  22.704751 -12.915742 24.094491
3830  3 0.0000  19.773921 -17.060563 31.273535
3831  3 0.0000  28.566414   7.808365  2.557359
3832  3 0.0000  25.635583   3.663543  9.736403
3833  3 0.0000  22.704753  -0.481278 16.915447
3834  3 0.0000  19.773922  -4.626100 24.094491
3835  3 0.0000  16.843091  -8.770921 31.273535
3836  3 0.0000  25.635584  16.098007  2.557359
3837  3 0.0000  22.704754  11.953185  9.736403
3838  3 0.0000  19.773923   7.808364 16.915447
3839  3 0.0000  16.843092   3.663542 24.094491
3840  3 0.0000  13.912261  -0.481279 31.273535
3841  3 0.0000  22.704755  24.387649  2.557359
3842  3 0.0000  19.773924  20.242827  9.736403
3843  3 0.0000  16.843093  16.098006 16.915447
3844  3 0.0000  13.912263  11.953184 24.094491
3845  3 0.0000  10.981432   7.808363 31.273535
3846  3 0.0000  19.773925  32.677291  2.557359
3847  3 0.0000  16.843094  28.532469  9.736403
3848  3 0.0000  13.912264  24.387648 16.915447
3849  3 0.0000  10.981433  20.242826 24.094491
3850  3 0.0000   8.050602  16.098005 31.273535
3851  3 0.0000  40.289733  -0.481277  2.557359
3852  3 0.0000  37.358903  -4.626099  9.736403
3853  3 0.0000  34.428072  -8.770920 16.915447
3854  3 0.0000  31.497241 -12.915742 24.094491
3855  3 0.0000  28.566410 -17.060563 31.273535
3856  3 0.0000  37.358904   7.808365  2.557359
3857  3 0.0000  34.428073   3.663543  9.736403
3858  3 0.0000  31.497242  -0.481278 16.915447
3859  3 0.0000  28.566411  -4.626100 24.094491
3860  3 0.0000  25.635581  -8.770921 31.273535
3861  3 0.0000  34.428074  16.098007  2.557359
3862  3 0.0000  31.497243  11.953185  9.736403
3863  3 0.0000  28.566413   7.808364 16.915447
3864  3 0.0000  25.635582   3.663542 24.094491
3865  3 0.0000  22.704751  -0.481279 31.273535
3866  3 0.0000  31.497244  24.387649  2.557359
3867  3 0.0000  28.566414  20.242827  9.736403
3868  3 0.0000  25.635583  16.098006 16.915447
3869  3 0.0000  22.704752  11.953184 24.094491
3870  3 0.0000  19.773921   7.808363 31.273535
3871  3 0.0000  28.566415  32.677291  2.557359
3872  3 0.0000  25.635584  28.532469  9.736403
3873  3 0.0000  22.704753  24.387648 16.915447
3874  3 0.0000  19.773922  20.242826 24.094491
3875  3 0.0000  16.843092  16.098005 31.273535
3876  3 0.0000  -0.741887   2.170727  5.483553
3877  3 0.0000  -3.672718  -1.974094 12.662597
3878  3 0.0000  -6.603549  -6.118916 19.841641
3879  3 0.0000  -9.534379 -10.263737 27.020685
3880  3 0.0000 -12.465210 -14.408559 34.199729
3881  3 0.0000  -3.672717  10.460369  5.483553
3882  3 0.0000  -6.603548   6.315548 12.662597
3883  3 0.0000  -9.534378   2.170726 19.841641
3884  3 0.0000 -12.465209  -1.974095 27.020685
3885  3 0.0000 -15.396040  -6.118917 34.199729
3886  3 0.0000  -6.603546  18.750011  5.483553
3887  3 0.0000  -9.534377  14.605190 12.662597
3888  3 0.0000 -12.465208  10.460368 19.841641
3889  3 0.0000 -15.396039   6.315547 27.020685
3890  3 0.0000 -18.326869   2.170725 34.199729
3891  3 0.0000  -9.534376  27.039653  5.483553
3892  3 0.0000 -12.465207  22.894832 12.662597
3893  3 0.0000 -15.396038  18.750010 19.841641
3894  3 0.0000 -18.326868  14.605189 27.020685
3895  3 0.0000 -21.257699  10.460367 34.199729
3896  3 0.0000 -12.465206  35.329295  5.483553
3897  3 0.0000 -15.396036  31.184474 12.662597
3898  3 0.0000 -18.326867  27.039652 19.841641
3899  3 0.0000 -21.257698  22.894831 27.020685
3900  3 0.0000 -24.188529  18.750009 34.199729
3901  3 0.0000   8.050602   2.170727  5.483553
3902  3 0.0000   5.119772  -1.974094 12.662597
3903  3 0.0000   2.188941  -6.118916 19.841641
3904  3 0.0000  -0.741890 -10.263737 27.020685
3905  3 0.0000  -3.672721 -14.408559 34.199729
3906  3 0.0000   5.119773  10.460369  5.483553
3907  3 0.0000   2.188942   6.315548 12.662597
3908  3 0.0000  -0.741889   2.170726 19.841641
3909  3 0.0000  -3.672720  -1.974095 27.020685
3910  3 0.0000  -6.603550  -6.118917 34.199729
3911  3 0.0000   2.188943  18.750011  5.483553
3912  3 0.0000  -0.741888  14.605190 12.662597
3913  3 0.0000  -3.672718  10.460368 19.841641
3914  3 0.0000  -6.603549   6.315547 27.020685
3915  3 0.0000  -9.534380   2.170725 34.199729
3916  3 0.0000  -0.741886  27.039653  5.483553
3917  3 0.0000  -3.672717  22.894832 12.662597
3918  3 0.0000  -6.603548  18.750010 19.841641
3919  3 0.0000  -9.534379  14.605189 27.020685
3920  3 0.0000 -12.465210  10.460367 34.199729
3921  3 0.0000  -3.672716  35.329295  5.483553
3922  3 0.0000  -6.603547  31.184474 12.662597
3923  3 0.0000  -9.534378  27.039652 19.841641
3924  3 0.0000 -12.465208  22.894831 27.020685
3925  3 0.0000 -15.396039  18.750009 34.199729
3926  3 0.0000  16.843092   2.170727  5.483553
3927  3 0.0000  13.912261  -1.974094 12.662597
3928  3 0.0000  10.981430  -6.118916 19.841641
3929  3 0.0000   8.050600 -10.263737 27.020685
3930  3 0.0000   5.119769 -14.408559 34.199729
3931  3 0.0000  13.912262  10.460369  5.483553
3932  3 0.0000  10.981432   6.315548 12.662597
3933  3 0.0000   8.050601   2.170726 19.841641
3934  3 0.0000   5.119770  -1.974095 27.020685
3935  3 0.0000   2.188939  -6.118917 34.199729
3936  3 0.0000  10.981433  18.750011  5.483553
3937  3 0.0000   8.050602  14.605190 12.662597
3938  3 0.0000   5.119771  10.460368 19.841641
3939  3 0.0000   2.188940   6.315547 27.020685
3940  3 0.0000  -0.741890   2.170725 34.199729
3941  3 0.0000   8.050603  27.039653  5.483553
3942  3 0.0000   5.119772  22.894832 12.662597
3943  3 0.0000   2.188942  18.750010 19.841641
3944  3 0.0000  -0.741889  14.605189 27.020685
3945  3 0.0000  -3.672720  10.460367 34.199729
3946  3 0.0000   5.119773  35.329295  5.483553
3947  3 0.0000   2.188943  31.184474 12.662597
3948  3 0.0000  -0.741888  27.039652 19.841641
3949  3 0.0000  -3.672719  22.894831 27.020685
3950  3 0.0000  -6.603550  18.750009 34.199729
3951  3 0.0000  25.635582   2.170727  5.483553
3952  3 0.0000  22.704751  -1.974094 12.662597
3953  3 0.0000  19.773920  -6.118916 19.841641
3954  3 0.0000  16.843089 -10.263737 27.020685
3955  3 0.0000  13.912259 -14.408559 34.199729
3956  3 0.0000  22.704752  10.460369  5.483553
3957  3 0.0000  19.773921   6.315548 12.662597
3958  3 0.0000  16.843090   2.170726 19.841641
3959  3 0.0000  13.912260  -1.974095 27.020685
3960  3 0.0000  10.981429  -6.118917 34.199729
3961  3 0.0000  19.773922  18.750011  5.483553
3962  3 0.0000  16.843092  14.605190 12.662597
3963  3 0.0000  13.912261  10.460368 19.841641
3964  3 0.0000  10.981430   6.315547 27.020685
3965  3 0.0000   8.050599   2.170725 34.199729
3966  3 0.0000  16.843093  27.039653  5.483553
3967  3 0.0000  13.912262  22.894832 12.662597
3968  3 0.0000  10.981431  18.750010 19.841641
3969  3 0.0000   8.050600  14.605189 27.020685
3970  3 0.0000   5.119770  10.460367 34.199729
3971  3 0.0000  13.912263  35.329295  5.483553
3972  3 0.0000  10.981432  31.184474 12.662597
3973  3 0.0000   8.050601  27.039652 19.841641
3974  3 0.0000   5.119771  22.894831 27.020685
3975  3 0.0000   2.188940  18.750009 34.199729
3976  3 0.0000  34.428071   2.170727  5.483553
3977  3 0.0000  31.497240  -1.974094 12.662597
3978  3 0.0000  28.566410  -6.118916 19.841641
3979  3 0.0000  25.635579 -10.263737 27.020685
3980  3 0.0000  22.704748 -14.408559 34.199729
3981  3 0.0000  31.497241  10.460369  5.483553
3982  3 0.0000  28.566411   6.315548 12.662597
3983  3 0.0000  25.635580   2.170726 19.841641
3984  3 0.0000  22.704749  -1.974095 27.020685
3985  3 0.0000  19.773918  -6.118917 34.199729
3986  3 0.0000  28.566412  18.750011  5.483553
3987  3 0.0000  25.635581  14.605190 12.662597
3988  3 0.0000  22.704750  10.460368 19.841641
3989  3 0.0000  19.773920   6.315547 27.020685
3990  3 0.0000  16.843089   2.170725 34.199729
3991  3 0.0000  25.635582  27.039653  5.483553
3992  3 0.0000  22.704751  22.894832 12.662597
3993  3 0.0000  19.773921  18.750010 19.841641
3994  3 0.0000  16.843090  14.605189 27.020685
3995  3 0.0000  13.912259  10.460367 34.199729
3996  3 0.0000  22.704753  35.329295  5.483553
3997  3 0.0000  19.773922  31.184474 12.662597
3998  3 0.0000  16.843091  27.039652 19.841641
3999  3 0.0000  13.912260  22.894831 27.020685
4000  3 0.0000  10.981430  18.750009 34.199729
4001  3 0.0000   3.701315   0.521724  4.621683
4002  3 0.0000   0.770484  -3.623097 11.800727
4003  3 0.0000  -2.160347  -7.767918 18.979771
4004  3 0.0000  -5.091178 -11.912740 26.158815
4005  3 0.0000  -8.022008 -16.057561 33.337859
4006  3 0.0000   0.770485   8.811366  4.621683
4007  3 0.0000  -2.160346   4.666545 11.800727
4008  3 0.0000  -5.091177   0.521724 18.979771
4009  3 0.0000  -8.022007  -3.623098 26.158815
4010  3 0.0000 -10.952838  -7.767919 33.337859
4011  3 0.0000  -2.160345  17.101008  4.621683
4012  3 0.0000  -5.091175  12.956187 11.800727
4013  3 0.0000  -8.022006   8.811366 18.979771
4014  3 0.0000 -10.952837   4.666544 26.158815
4015  3 0.0000 -13.883668   0.521723 33.337859
4016  3 0.0000  -5.091174  25.390650  4.621683
4017  3 0.0000  -8.022005  21.245829 11.800727
4018  3 0.0000 -10.952836  17.101008 18.979771
4019  3 0.0000 -13.883667  12.956186 26.158815
4020  3 0.0000 -16.814497   8.811365 33.337859
4021  3 0.0000  -8.022004  33.680292  4.621683
4022  3 0.0000 -10.952835  29.535471 11.800727
4023  3 0.0000 -13.883665  25.390650 18.979771
4024  3 0.0000 -16.814496  21.245828 26.158815
4025  3 0.0000 -19.745327  17.101007 33.337859
4026  3 0.0000  12.493804   0.521724  4.621683
4027  3 0.0000   9.562973  -3.623097 11.800727
4028  3 0.0000   6.632143  -7.767918 18.979771
4029  3 0.0000   3.701312 -11.912740 26.158815
4030  3 0.0000   0.770481 -16.057561 33.337859
4031  3 0.0000   9.562975   8.811366  4.621683
4032  3 0.0000   6.632144   4.666545 11.800727
4033  3 0.0000   3.701313   0.521724 18.979771
4034  3 0.0000   0.770482  -3.623098 26.158815
4035  3 0.0000  -2.160348  -7.767919 33.337859
4036  3 0.0000   6.632145  17.101008  4.621683
4037  3 0.0000   3.701314  12.956187 11.800727
4038  3 0.0000   0.770483   8.811366 18.979771
4039  3 0.0000  -2.160347   4.666544 26.158815
4040  3 0.0000  -5.091178   0.521723 33.337859
4041  3 0.0000   3.701315  25.390650  4.621683
4042  3 0.0000   0.770485  21.245829 11.800727
4043  3 0.0000  -2.160346  17.101008 18.979771
4044  3 0.0000  -5.091177  12.956186 26.158815
4045  3 0.0000  -8.022008   8.811365 33.337859
4046  3 0.0000   0.770486  33.680292  4.621683
4047  3 0.0000  -2.160345  29.535471 11.800727
4048  3 0.0000  -5.091176  25.390650 18.979771
4049  3 0.0000  -8.022007  21.245828 26.158815
4050  3 0.0000 -10.952837  17.101007 33.337859
4051  3 0.0000  21.286294   0.521724  4.621683
4052  3 0.0000  18.355463  -3.623097 11.800727
4053  3 0.0000  15.424632  -7.767918 18.979771
4054  3 0.0000  12.493801 -11.912740 26.158815
4055  3 0.0000   9.562971 -16.057561 33.337859
4056  3 0.0000  18.355464   8.811366  4.621683
4057  3 0.0000  15.424633   4.666545 11.800727
4058  3 0.0000  12.493803   0.521724 18.979771
4059  3 0.0000   9.562972  -3.623098 26.158815
4060  3 0.0000   6.632141  -7.767919 33.337859
4061  3 0.0000  15.424634  17.101008  4.621683
4062  3 0.0000  12.493804  12.956187 11.800727
4063  3 0.0000   9.562973   8.811366 18.979771
4064  3 0.0000   6.632142   4.666544 26.158815
4065  3 0.0000   3.701311   0.521723 33.337859
4066  3 0.0000  12.493805  25.390650  4.621683
4067  3 0.0000   9.562974  21.245829 11.800727
4068  3 0.0000   6.632143  17.101008 18.979771
4069  3 0.0000   3.701313  12.956186 26.158815
4070  3 0.0000   0.770482   8.811365 33.337859
4071  3 0.0000   9.562975  33.680292  4.621683
4072  3 0.0000   6.632144  29.535471 11.800727
4073  3 0.0000   3.701314  25.390650 18.979771
4074  3 0.0000   0.770483  21.245828 26.158815
4075  3 0.0000  -2.160348  17.101007 33.337859
4076  3 0.0000  30.078783   0.521724  4.621683
4077  3 0.0000  27.147953  -3.623097 11.800727
4078  3 0.0000  24.217122  -7.767918 18.979771
4079  3 0.0000  21.286291 -11.912740 26.158815
4080  3 0.0000  18.355460 -16.057561 33.337859
4081  3 0.0000  27.147954   8.811366  4.621683
4082  3 0.0000  24.217123   4.666545 11.800727
4083  3 0.0000  21.286292   0.521724 18.979771
4084  3 0.0000  18.355461  -3.623098 26.158815
4085  3 0.0000  15.424631  -7.767919 33.337859
4086  3 0.0000  24.217124  17.101008  4.621683
4087  3 0.0000  21.286293  12.956187 11.800727
4088  3 0.0000  18.355463   8.811366 18.979771
4089  3 0.0000  15.424632   4.666544 26.158815
4090  3 0.0000  12.493801   0.521723 33.337859
4091  3 0.0000  21.286294  25.390650  4.621683
4092  3 0.0000  18.355464  21.245829 11.800727
4093  3 0.0000  15.424633  17.101008 18.979771
4094  3 0.0000  12.493802  12.956186 26.158815
4095  3 0.0000   9.562971   8.811365 33.337859
4096  3 0.0000  18.355465  33.680292  4.621683
4097  3 0.0000  15.424634  29.535471 11.800727
4098  3 0.0000  12.493803  25.390650 18.979771
4099  3 0.0000   9.562973  21.245828 26.158815
4100  3 0.0000   6.632142  17.101007 33.337859
4101  3 0.0000  38.871273   0.521724  4.621683
4102  3 0.0000  35.940442  -3.623097 11.800727
4103  3 0.0000  33.009611  -7.767918 18.979771
4104  3 0.0000  30.078781 -11.912740 26.158815
4105  3 0.0000  27.147950 -16.057561 33.337859
4106  3 0.0000  35.940443   8.811366  4.621683
4107  3 0.0000  33.009612   4.666545 11.800727
4108  3 0.0000  30.078782   0.521724 18.979771
4109  3 0.0000  27.147951  -3.623098 26.158815
4110  3 0.0000  24.217120  -7.767919 33.337859
4111  3 0.0000  33.009614  17.101008  4.621683
4112  3 0.0000  30.078783  12.956187 11.800727
4113  3 0.0000  27.147952   8.811366 18.979771
4114  3 0.0000  24.217121   4.666544 26.158815
4115  3 0.0000  21.286291   0.521723 33.337859
4116  3 0.0000  30.078784  25.390650  4.621683
4117  3 0.0000  27.147953  21.245829 11.800727
4118  3 0.0000  24.217122  17.101008 18.979771
4119  3 0.0000  21.286292  12.956186 26.158815
4120  3 0.0000  18.355461   8.811365 33.337859
4121  3 0.0000  27.147954  33.680292  4.621683
4122  3 0.0000  24.217124  29.535471 11.800727
4123  3 0.0000  21.286293  25.390650 18.979771
4124  3 0.0000  18.355462  21.245828 26.158815
4125  3 0.0000  15.424631  17.101007 33.337859

