Generated by pymatgen.io.lammps.data.LammpsData

640  atoms

  3  atom types

0.000000 20.615773  xlo xhi
0.000000 19.577565  ylo yhi
0.000000 17.009130  zlo zhi
10.306359 5.147543 4.358872  xy xz yz

Masses

1   6.94100
2  92.90638
3  15.99940

Atoms

1    1 0.0000  5.149260  3.913442  1.249954
2    1 0.0000  7.723032  6.092878  9.754520
3    1 0.0000  7.725850  8.807833  1.249954
4    1 0.0000 10.299622 10.987269  9.754520
5    1 0.0000 10.302440 13.702224  1.249954
6    1 0.0000 12.876211 15.881660  9.754520
7    1 0.0000 12.879029 18.596615  1.249954
8    1 0.0000 15.452801 20.776051  9.754520
9    1 0.0000 10.303204  3.913442  1.249954
10   1 0.0000 12.876975  6.092878  9.754520
11   1 0.0000 12.879793  8.807833  1.249954
12   1 0.0000 15.453565 10.987269  9.754520
13   1 0.0000 15.456383 13.702224  1.249954
14   1 0.0000 18.030154 15.881660  9.754520
15   1 0.0000 18.032973 18.596615  1.249954
16   1 0.0000 20.606744 20.776051  9.754520
17   1 0.0000 15.457147  3.913442  1.249954
18   1 0.0000 18.030918  6.092878  9.754520
19   1 0.0000 18.033737  8.807833  1.249954
20   1 0.0000 20.607508 10.987269  9.754520
21   1 0.0000 20.610326 13.702224  1.249954
22   1 0.0000 23.184098 15.881660  9.754520
23   1 0.0000 23.186916 18.596615  1.249954
24   1 0.0000 25.760687 20.776051  9.754520
25   1 0.0000 20.611090  3.913442  1.249954
26   1 0.0000 23.184862  6.092878  9.754520
27   1 0.0000 23.187680  8.807833  1.249954
28   1 0.0000 25.761451 10.987269  9.754520
29   1 0.0000 25.764269 13.702224  1.249954
30   1 0.0000 28.338041 15.881660  9.754520
31   1 0.0000 28.340859 18.596615  1.249954
32   1 0.0000 30.914631 20.776051  9.754520
33   1 0.0000  2.568838  2.554335  5.500569
34   1 0.0000  5.142610  4.733771 14.005134
35   1 0.0000  5.145428  7.448726  5.500569
36   1 0.0000  7.719199  9.628162 14.005134
37   1 0.0000  7.722017 12.343117  5.500569
38   1 0.0000 10.295789 14.522553 14.005134
39   1 0.0000 10.298607 17.237508  5.500569
40   1 0.0000 12.872379 19.416944 14.005134
41   1 0.0000  7.722781  2.554335  5.500569
42   1 0.0000 10.296553  4.733771 14.005134
43   1 0.0000 10.299371  7.448726  5.500569
44   1 0.0000 12.873143  9.628162 14.005134
45   1 0.0000 12.875961 12.343117  5.500569
46   1 0.0000 15.449732 14.522553 14.005134
47   1 0.0000 15.452550 17.237508  5.500569
48   1 0.0000 18.026322 19.416944 14.005134
49   1 0.0000 12.876725  2.554335  5.500569
50   1 0.0000 15.450496  4.733771 14.005134
51   1 0.0000 15.453314  7.448726  5.500569
52   1 0.0000 18.027086  9.628162 14.005134
53   1 0.0000 18.029904 12.343117  5.500569
54   1 0.0000 20.603676 14.522553 14.005134
55   1 0.0000 20.606494 17.237508  5.500569
56   1 0.0000 23.180265 19.416944 14.005134
57   1 0.0000 18.030668  2.554335  5.500569
58   1 0.0000 20.604440  4.733771 14.005134
59   1 0.0000 20.607258  7.448726  5.500569
60   1 0.0000 23.181029  9.628162 14.005134
61   1 0.0000 23.183847 12.343117  5.500569
62   1 0.0000 25.757619 14.522553 14.005134
63   1 0.0000 25.760437 17.237508  5.500569
64   1 0.0000 28.334208 19.416944 14.005134
65   1 0.0000  7.732155  5.689716  3.383176
66   1 0.0000 10.305926  7.869152 11.887742
67   1 0.0000 10.308745 10.584107  3.383176
68   1 0.0000 12.882516 12.763543 11.887742
69   1 0.0000 12.885334 15.478498  3.383176
70   1 0.0000 15.459106 17.657934 11.887742
71   1 0.0000 15.461924 20.372890  3.383176
72   1 0.0000 18.035695 22.552326 11.887742
73   1 0.0000 12.886098  5.689716  3.383176
74   1 0.0000 15.459870  7.869152 11.887742
75   1 0.0000 15.462688 10.584107  3.383176
76   1 0.0000 18.036459 12.763543 11.887742
77   1 0.0000 18.039277 15.478498  3.383176
78   1 0.0000 20.613049 17.657934 11.887742
79   1 0.0000 20.615867 20.372890  3.383176
80   1 0.0000 23.189639 22.552326 11.887742
81   1 0.0000 18.040041  5.689716  3.383176
82   1 0.0000 20.613813  7.869152 11.887742
83   1 0.0000 20.616631 10.584107  3.383176
84   1 0.0000 23.190403 12.763543 11.887742
85   1 0.0000 23.193221 15.478498  3.383176
86   1 0.0000 25.766992 17.657934 11.887742
87   1 0.0000 25.769810 20.372890  3.383176
88   1 0.0000 28.343582 22.552326 11.887742
89   1 0.0000 23.193985  5.689716  3.383176
90   1 0.0000 25.767756  7.869152 11.887742
91   1 0.0000 25.770574 10.584107  3.383176
92   1 0.0000 28.344346 12.763543 11.887742
93   1 0.0000 28.347164 15.478498  3.383176
94   1 0.0000 30.920936 17.657934 11.887742
95   1 0.0000 30.923754 20.372890  3.383176
96   1 0.0000 33.497525 22.552326 11.887742
97   1 0.0000  5.158349  4.327140  7.629901
98   1 0.0000  7.732121  6.506576 16.134466
99   1 0.0000  7.734939  9.221531  7.629901
100  1 0.0000 10.308711 11.400967 16.134466
101  1 0.0000 10.311529 14.115923  7.629901
102  1 0.0000 12.885300 16.295359 16.134466
103  1 0.0000 12.888118 19.010314  7.629901
104  1 0.0000 15.461890 21.189750 16.134466
105  1 0.0000 10.312293  4.327140  7.629901
106  1 0.0000 12.886064  6.506576 16.134466
107  1 0.0000 12.888882  9.221531  7.629901
108  1 0.0000 15.462654 11.400967 16.134466
109  1 0.0000 15.465472 14.115923  7.629901
110  1 0.0000 18.039244 16.295359 16.134466
111  1 0.0000 18.042062 19.010314  7.629901
112  1 0.0000 20.615833 21.189750 16.134466
113  1 0.0000 15.466236  4.327140  7.629901
114  1 0.0000 18.040008  6.506576 16.134466
115  1 0.0000 18.042826  9.221531  7.629901
116  1 0.0000 20.616597 11.400967 16.134466
117  1 0.0000 20.619415 14.115923  7.629901
118  1 0.0000 23.193187 16.295359 16.134466
119  1 0.0000 23.196005 19.010314  7.629901
120  1 0.0000 25.769777 21.189750 16.134466
121  1 0.0000 20.620179  4.327140  7.629901
122  1 0.0000 23.193951  6.506576 16.134466
123  1 0.0000 23.196769  9.221531  7.629901
124  1 0.0000 25.770541 11.400967 16.134466
125  1 0.0000 25.773359 14.115923  7.629901
126  1 0.0000 28.347130 16.295359 16.134466
127  1 0.0000 28.349948 19.010314  7.629901
128  1 0.0000 30.923720 21.189750 16.134466
129  2 0.0000  5.153541  0.154020  0.049507
130  2 0.0000  7.727312  2.333456  8.554072
131  2 0.0000  7.730130  5.048411  0.049507
132  2 0.0000 10.303902  7.227847  8.554072
133  2 0.0000 10.306720  9.942802  0.049507
134  2 0.0000 12.880492 12.122238  8.554072
135  2 0.0000 12.883310 14.837194  0.049507
136  2 0.0000 15.457081 17.016629  8.554072
137  2 0.0000 10.307484  0.154020  0.049507
138  2 0.0000 12.881256  2.333456  8.554072
139  2 0.0000 12.884074  5.048411  0.049507
140  2 0.0000 15.457845  7.227847  8.554072
141  2 0.0000 15.460663  9.942802  0.049507
142  2 0.0000 18.034435 12.122238  8.554072
143  2 0.0000 18.037253 14.837194  0.049507
144  2 0.0000 20.611025 17.016629  8.554072
145  2 0.0000 15.461427  0.154020  0.049507
146  2 0.0000 18.035199  2.333456  8.554072
147  2 0.0000 18.038017  5.048411  0.049507
148  2 0.0000 20.611789  7.227847  8.554072
149  2 0.0000 20.614607  9.942802  0.049507
150  2 0.0000 23.188378 12.122238  8.554072
151  2 0.0000 23.191196 14.837194  0.049507
152  2 0.0000 25.764968 17.016629  8.554072
153  2 0.0000 20.615371  0.154020  0.049507
154  2 0.0000 23.189142  2.333456  8.554072
155  2 0.0000 23.191960  5.048411  0.049507
156  2 0.0000 25.765732  7.227847  8.554072
157  2 0.0000 25.768550  9.942802  0.049507
158  2 0.0000 28.342322 12.122238  8.554072
159  2 0.0000 28.345140 14.837194  0.049507
160  2 0.0000 30.918911 17.016629  8.554072
161  2 0.0000  5.150537  3.691902  4.301350
162  2 0.0000  7.724309  5.871338 12.805916
163  2 0.0000  7.727127  8.586293  4.301350
164  2 0.0000 10.300898 10.765729 12.805916
165  2 0.0000 10.303716 13.480684  4.301350
166  2 0.0000 12.877488 15.660120 12.805916
167  2 0.0000 12.880306 18.375075  4.301350
168  2 0.0000 15.454078 20.554511 12.805916
169  2 0.0000 10.304480  3.691902  4.301350
170  2 0.0000 12.878252  5.871338 12.805916
171  2 0.0000 12.881070  8.586293  4.301350
172  2 0.0000 15.454842 10.765729 12.805916
173  2 0.0000 15.457660 13.480684  4.301350
174  2 0.0000 18.031431 15.660120 12.805916
175  2 0.0000 18.034249 18.375075  4.301350
176  2 0.0000 20.608021 20.554511 12.805916
177  2 0.0000 15.458424  3.691902  4.301350
178  2 0.0000 18.032195  5.871338 12.805916
179  2 0.0000 18.035013  8.586293  4.301350
180  2 0.0000 20.608785 10.765729 12.805916
181  2 0.0000 20.611603 13.480684  4.301350
182  2 0.0000 23.185375 15.660120 12.805916
183  2 0.0000 23.188193 18.375075  4.301350
184  2 0.0000 25.761964 20.554511 12.805916
185  2 0.0000 20.612367  3.691902  4.301350
186  2 0.0000 23.186139  5.871338 12.805916
187  2 0.0000 23.188957  8.586293  4.301350
188  2 0.0000 25.762728 10.765729 12.805916
189  2 0.0000 25.765546 13.480684  4.301350
190  2 0.0000 28.339318 15.660120 12.805916
191  2 0.0000 28.342136 18.375075  4.301350
192  2 0.0000 30.915908 20.554511 12.805916
193  2 0.0000  2.575448  1.922796  2.174386
194  2 0.0000  5.149219  4.102232 10.678951
195  2 0.0000  5.152037  6.817187  2.174386
196  2 0.0000  7.725809  8.996623 10.678951
197  2 0.0000  7.728627 11.711578  2.174386
198  2 0.0000 10.302399 13.891014 10.678951
199  2 0.0000 10.305217 16.605970  2.174386
200  2 0.0000 12.878988 18.785406 10.678951
201  2 0.0000  7.729391  1.922796  2.174386
202  2 0.0000 10.303163  4.102232 10.678951
203  2 0.0000 10.305981  6.817187  2.174386
204  2 0.0000 12.879752  8.996623 10.678951
205  2 0.0000 12.882570 11.711578  2.174386
206  2 0.0000 15.456342 13.891014 10.678951
207  2 0.0000 15.459160 16.605970  2.174386
208  2 0.0000 18.032932 18.785406 10.678951
209  2 0.0000 12.883334  1.922796  2.174386
210  2 0.0000 15.457106  4.102232 10.678951
211  2 0.0000 15.459924  6.817187  2.174386
212  2 0.0000 18.033696  8.996623 10.678951
213  2 0.0000 18.036514 11.711578  2.174386
214  2 0.0000 20.610285 13.891014 10.678951
215  2 0.0000 20.613103 16.605970  2.174386
216  2 0.0000 23.186875 18.785406 10.678951
217  2 0.0000 18.037278  1.922796  2.174386
218  2 0.0000 20.611049  4.102232 10.678951
219  2 0.0000 20.613867  6.817187  2.174386
220  2 0.0000 23.187639  8.996623 10.678951
221  2 0.0000 23.190457 11.711578  2.174386
222  2 0.0000 25.764229 13.891014 10.678951
223  2 0.0000 25.767047 16.605970  2.174386
224  2 0.0000 28.340818 18.785406 10.678951
225  2 0.0000  7.728296  5.458656  6.427306
226  2 0.0000 10.302068  7.638092 14.931871
227  2 0.0000 10.304886 10.353047  6.427306
228  2 0.0000 12.878657 12.532483 14.931871
229  2 0.0000 12.881476 15.247439  6.427306
230  2 0.0000 15.455247 17.426875 14.931871
231  2 0.0000 15.458065 20.141830  6.427306
232  2 0.0000 18.031837 22.321266 14.931871
233  2 0.0000 12.882240  5.458656  6.427306
234  2 0.0000 15.456011  7.638092 14.931871
235  2 0.0000 15.458829 10.353047  6.427306
236  2 0.0000 18.032601 12.532483 14.931871
237  2 0.0000 18.035419 15.247439  6.427306
238  2 0.0000 20.609190 17.426875 14.931871
239  2 0.0000 20.612009 20.141830  6.427306
240  2 0.0000 23.185780 22.321266 14.931871
241  2 0.0000 18.036183  5.458656  6.427306
242  2 0.0000 20.609954  7.638092 14.931871
243  2 0.0000 20.612772 10.353047  6.427306
244  2 0.0000 23.186544 12.532483 14.931871
245  2 0.0000 23.189362 15.247439  6.427306
246  2 0.0000 25.763134 17.426875 14.931871
247  2 0.0000 25.765952 20.141830  6.427306
248  2 0.0000 28.339723 22.321266 14.931871
249  2 0.0000 23.190126  5.458656  6.427306
250  2 0.0000 25.763898  7.638092 14.931871
251  2 0.0000 25.766716 10.353047  6.427306
252  2 0.0000 28.340487 12.532483 14.931871
253  2 0.0000 28.343305 15.247439  6.427306
254  2 0.0000 30.917077 17.426875 14.931871
255  2 0.0000 30.919895 20.141830  6.427306
256  2 0.0000 33.493667 22.321266 14.931871
257  3 0.0000  4.472587  5.001074  3.101085
258  3 0.0000  7.046359  7.180510 11.605650
259  3 0.0000  7.049177  9.895465  3.101085
260  3 0.0000  9.622948 12.074901 11.605650
261  3 0.0000  9.625766 14.789856  3.101085
262  3 0.0000 12.199538 16.969292 11.605650
263  3 0.0000 12.202356 19.684247  3.101085
264  3 0.0000 14.776127 21.863683 11.605650
265  3 0.0000  9.626530  5.001074  3.101085
266  3 0.0000 12.200302  7.180510 11.605650
267  3 0.0000 12.203120  9.895465  3.101085
268  3 0.0000 14.776891 12.074901 11.605650
269  3 0.0000 14.779710 14.789856  3.101085
270  3 0.0000 17.353481 16.969292 11.605650
271  3 0.0000 17.356299 19.684247  3.101085
272  3 0.0000 19.930071 21.863683 11.605650
273  3 0.0000 14.780474  5.001074  3.101085
274  3 0.0000 17.354245  7.180510 11.605650
275  3 0.0000 17.357063  9.895465  3.101085
276  3 0.0000 19.930835 12.074901 11.605650
277  3 0.0000 19.933653 14.789856  3.101085
278  3 0.0000 22.507424 16.969292 11.605650
279  3 0.0000 22.510243 19.684247  3.101085
280  3 0.0000 25.084014 21.863683 11.605650
281  3 0.0000 19.934417  5.001074  3.101085
282  3 0.0000 22.508188  7.180510 11.605650
283  3 0.0000 22.511007  9.895465  3.101085
284  3 0.0000 25.084778 12.074901 11.605650
285  3 0.0000 25.087596 14.789856  3.101085
286  3 0.0000 27.661368 16.969292 11.605650
287  3 0.0000 27.664186 19.684247  3.101085
288  3 0.0000 30.237957 21.863683 11.605650
289  3 0.0000  1.674480  0.939277  0.490314
290  3 0.0000  4.248251  3.118713  8.994879
291  3 0.0000  4.251069  5.833668  0.490314
292  3 0.0000  6.824841  8.013104  8.994879
293  3 0.0000  6.827659 10.728059  0.490314
294  3 0.0000  9.401431 12.907495  8.994879
295  3 0.0000  9.404249 15.622450  0.490314
296  3 0.0000 11.978020 17.801886  8.994879
297  3 0.0000  6.828423  0.939277  0.490314
298  3 0.0000  9.402195  3.118713  8.994879
299  3 0.0000  9.405013  5.833668  0.490314
300  3 0.0000 11.978784  8.013104  8.994879
301  3 0.0000 11.981602 10.728059  0.490314
302  3 0.0000 14.555374 12.907495  8.994879
303  3 0.0000 14.558192 15.622450  0.490314
304  3 0.0000 17.131963 17.801886  8.994879
305  3 0.0000 11.982366  0.939277  0.490314
306  3 0.0000 14.556138  3.118713  8.994879
307  3 0.0000 14.558956  5.833668  0.490314
308  3 0.0000 17.132727  8.013104  8.994879
309  3 0.0000 17.135546 10.728059  0.490314
310  3 0.0000 19.709317 12.907495  8.994879
311  3 0.0000 19.712135 15.622450  0.490314
312  3 0.0000 22.285907 17.801886  8.994879
313  3 0.0000 17.136310  0.939277  0.490314
314  3 0.0000 19.710081  3.118713  8.994879
315  3 0.0000 19.712899  5.833668  0.490314
316  3 0.0000 22.286671  8.013104  8.994879
317  3 0.0000 22.289489 10.728059  0.490314
318  3 0.0000 24.863260 12.907495  8.994879
319  3 0.0000 24.866079 15.622450  0.490314
320  3 0.0000 27.439850 17.801886  8.994879
321  3 0.0000  4.159108  0.582011  1.611619
322  3 0.0000  6.732879  2.761447 10.116184
323  3 0.0000  6.735697  5.476403  1.611619
324  3 0.0000  9.309469  7.655838 10.116184
325  3 0.0000  9.312287 10.370794  1.611619
326  3 0.0000 11.886059 12.550230 10.116184
327  3 0.0000 11.888877 15.265185  1.611619
328  3 0.0000 14.462648 17.444621 10.116184
329  3 0.0000  9.313051  0.582011  1.611619
330  3 0.0000 11.886822  2.761447 10.116184
331  3 0.0000 11.889641  5.476403  1.611619
332  3 0.0000 14.463412  7.655838 10.116184
333  3 0.0000 14.466230 10.370794  1.611619
334  3 0.0000 17.040002 12.550230 10.116184
335  3 0.0000 17.042820 15.265185  1.611619
336  3 0.0000 19.616591 17.444621 10.116184
337  3 0.0000 14.466994  0.582011  1.611619
338  3 0.0000 17.040766  2.761447 10.116184
339  3 0.0000 17.043584  5.476403  1.611619
340  3 0.0000 19.617355  7.655838 10.116184
341  3 0.0000 19.620174 10.370794  1.611619
342  3 0.0000 22.193945 12.550230 10.116184
343  3 0.0000 22.196763 15.265185  1.611619
344  3 0.0000 24.770535 17.444621 10.116184
345  3 0.0000 19.620938  0.582011  1.611619
346  3 0.0000 22.194709  2.761447 10.116184
347  3 0.0000 22.197527  5.476403  1.611619
348  3 0.0000 24.771299  7.655838 10.116184
349  3 0.0000 24.774117 10.370794  1.611619
350  3 0.0000 27.347888 12.550230 10.116184
351  3 0.0000 27.350706 15.265185  1.611619
352  3 0.0000 29.924478 17.444621 10.116184
353  3 0.0000  6.055966  2.708245  2.616575
354  3 0.0000  8.629738  4.887681 11.121140
355  3 0.0000  8.632556  7.602636  2.616575
356  3 0.0000 11.206328  9.782072 11.121140
357  3 0.0000 11.209146 12.497027  2.616575
358  3 0.0000 13.782917 14.676463 11.121140
359  3 0.0000 13.785735 17.391418  2.616575
360  3 0.0000 16.359507 19.570854 11.121140
361  3 0.0000 11.209910  2.708245  2.616575
362  3 0.0000 13.783681  4.887681 11.121140
363  3 0.0000 13.786499  7.602636  2.616575
364  3 0.0000 16.360271  9.782072 11.121140
365  3 0.0000 16.363089 12.497027  2.616575
366  3 0.0000 18.936861 14.676463 11.121140
367  3 0.0000 18.939679 17.391418  2.616575
368  3 0.0000 21.513450 19.570854 11.121140
369  3 0.0000 16.363853  2.708245  2.616575
370  3 0.0000 18.937625  4.887681 11.121140
371  3 0.0000 18.940443  7.602636  2.616575
372  3 0.0000 21.514214  9.782072 11.121140
373  3 0.0000 21.517032 12.497027  2.616575
374  3 0.0000 24.090804 14.676463 11.121140
375  3 0.0000 24.093622 17.391418  2.616575
376  3 0.0000 26.667394 19.570854 11.121140
377  3 0.0000 21.517796  2.708245  2.616575
378  3 0.0000 24.091568  4.887681 11.121140
379  3 0.0000 24.094386  7.602636  2.616575
380  3 0.0000 26.668158  9.782072 11.121140
381  3 0.0000 26.670976 12.497027  2.616575
382  3 0.0000 29.244747 14.676463 11.121140
383  3 0.0000 29.247565 17.391418  2.616575
384  3 0.0000 31.821337 19.570854 11.121140
385  3 0.0000  3.570367  2.350077  3.737230
386  3 0.0000  6.144138  4.529513 12.241795
387  3 0.0000  6.146956  7.244468  3.737230
388  3 0.0000  8.720728  9.423904 12.241795
389  3 0.0000  8.723546 12.138859  3.737230
390  3 0.0000 11.297318 14.318295 12.241795
391  3 0.0000 11.300136 17.033251  3.737230
392  3 0.0000 13.873907 19.212686 12.241795
393  3 0.0000  8.724310  2.350077  3.737230
394  3 0.0000 11.298082  4.529513 12.241795
395  3 0.0000 11.300900  7.244468  3.737230
396  3 0.0000 13.874671  9.423904 12.241795
397  3 0.0000 13.877489 12.138859  3.737230
398  3 0.0000 16.451261 14.318295 12.241795
399  3 0.0000 16.454079 17.033251  3.737230
400  3 0.0000 19.027850 19.212686 12.241795
401  3 0.0000 13.878253  2.350077  3.737230
402  3 0.0000 16.452025  4.529513 12.241795
403  3 0.0000 16.454843  7.244468  3.737230
404  3 0.0000 19.028614  9.423904 12.241795
405  3 0.0000 19.031433 12.138859  3.737230
406  3 0.0000 21.605204 14.318295 12.241795
407  3 0.0000 21.608022 17.033251  3.737230
408  3 0.0000 24.181794 19.212686 12.241795
409  3 0.0000 19.032197  2.350077  3.737230
410  3 0.0000 21.605968  4.529513 12.241795
411  3 0.0000 21.608786  7.244468  3.737230
412  3 0.0000 24.182558  9.423904 12.241795
413  3 0.0000 24.185376 12.138859  3.737230
414  3 0.0000 26.759147 14.318295 12.241795
415  3 0.0000 26.761966 17.033251  3.737230
416  3 0.0000 29.335737 19.212686 12.241795
417  3 0.0000  7.049782  3.641747  7.352170
418  3 0.0000  9.623554  5.821183 15.856735
419  3 0.0000  9.626372  8.536138  7.352170
420  3 0.0000 12.200144 10.715574 15.856735
421  3 0.0000 12.202962 13.430529  7.352170
422  3 0.0000 14.776733 15.609965 15.856735
423  3 0.0000 14.779551 18.324920  7.352170
424  3 0.0000 17.353323 20.504356 15.856735
425  3 0.0000 12.203726  3.641747  7.352170
426  3 0.0000 14.777497  5.821183 15.856735
427  3 0.0000 14.780315  8.536138  7.352170
428  3 0.0000 17.354087 10.715574 15.856735
429  3 0.0000 17.356905 13.430529  7.352170
430  3 0.0000 19.930677 15.609965 15.856735
431  3 0.0000 19.933495 18.324920  7.352170
432  3 0.0000 22.507266 20.504356 15.856735
433  3 0.0000 17.357669  3.641747  7.352170
434  3 0.0000 19.931441  5.821183 15.856735
435  3 0.0000 19.934259  8.536138  7.352170
436  3 0.0000 22.508030 10.715574 15.856735
437  3 0.0000 22.510848 13.430529  7.352170
438  3 0.0000 25.084620 15.609965 15.856735
439  3 0.0000 25.087438 18.324920  7.352170
440  3 0.0000 27.661209 20.504356 15.856735
441  3 0.0000 22.511612  3.641747  7.352170
442  3 0.0000 25.085384  5.821183 15.856735
443  3 0.0000 25.088202  8.536138  7.352170
444  3 0.0000 27.661973 10.715574 15.856735
445  3 0.0000 27.664792 13.430529  7.352170
446  3 0.0000 30.238563 15.609965 15.856735
447  3 0.0000 30.241381 18.324920  7.352170
448  3 0.0000 32.815153 20.504356 15.856735
449  3 0.0000  3.255848  3.231518  0.974650
450  3 0.0000  5.829619  5.410954  9.479215
451  3 0.0000  5.832437  8.125909  0.974650
452  3 0.0000  8.406209 10.305345  9.479215
453  3 0.0000  8.409027 13.020300  0.974650
454  3 0.0000 10.982799 15.199736  9.479215
455  3 0.0000 10.985617 17.914691  0.974650
456  3 0.0000 13.559388 20.094127  9.479215
457  3 0.0000  8.409791  3.231518  0.974650
458  3 0.0000 10.983563  5.410954  9.479215
459  3 0.0000 10.986381  8.125909  0.974650
460  3 0.0000 13.560152 10.305345  9.479215
461  3 0.0000 13.562970 13.020300  0.974650
462  3 0.0000 16.136742 15.199736  9.479215
463  3 0.0000 16.139560 17.914691  0.974650
464  3 0.0000 18.713332 20.094127  9.479215
465  3 0.0000 13.563734  3.231518  0.974650
466  3 0.0000 16.137506  5.410954  9.479215
467  3 0.0000 16.140324  8.125909  0.974650
468  3 0.0000 18.714096 10.305345  9.479215
469  3 0.0000 18.716914 13.020300  0.974650
470  3 0.0000 21.290685 15.199736  9.479215
471  3 0.0000 21.293503 17.914691  0.974650
472  3 0.0000 23.867275 20.094127  9.479215
473  3 0.0000 18.717678  3.231518  0.974650
474  3 0.0000 21.291449  5.410954  9.479215
475  3 0.0000 21.294267  8.125909  0.974650
476  3 0.0000 23.868039 10.305345  9.479215
477  3 0.0000 23.870857 13.020300  0.974650
478  3 0.0000 26.444629 15.199736  9.479215
479  3 0.0000 26.447447 17.914691  0.974650
480  3 0.0000 29.021218 20.094127  9.479215
481  3 0.0000  6.825816  4.474910  4.743322
482  3 0.0000  9.399587  6.654346 13.247887
483  3 0.0000  9.402405  9.369301  4.743322
484  3 0.0000 11.976177 11.548737 13.247887
485  3 0.0000 11.978995 14.263692  4.743322
486  3 0.0000 14.552767 16.443128 13.247887
487  3 0.0000 14.555585 19.158084  4.743322
488  3 0.0000 17.129356 21.337519 13.247887
489  3 0.0000 11.979759  4.474910  4.743322
490  3 0.0000 14.553531  6.654346 13.247887
491  3 0.0000 14.556349  9.369301  4.743322
492  3 0.0000 17.130120 11.548737 13.247887
493  3 0.0000 17.132938 14.263692  4.743322
494  3 0.0000 19.706710 16.443128 13.247887
495  3 0.0000 19.709528 19.158084  4.743322
496  3 0.0000 22.283299 21.337519 13.247887
497  3 0.0000 17.133702  4.474910  4.743322
498  3 0.0000 19.707474  6.654346 13.247887
499  3 0.0000 19.710292  9.369301  4.743322
500  3 0.0000 22.284063 11.548737 13.247887
501  3 0.0000 22.286882 14.263692  4.743322
502  3 0.0000 24.860653 16.443128 13.247887
503  3 0.0000 24.863471 19.158084  4.743322
504  3 0.0000 27.437243 21.337519 13.247887
505  3 0.0000 22.287646  4.474910  4.743322
506  3 0.0000 24.861417  6.654346 13.247887
507  3 0.0000 24.864235  9.369301  4.743322
508  3 0.0000 27.438007 11.548737 13.247887
509  3 0.0000 27.440825 14.263692  4.743322
510  3 0.0000 30.014596 16.443128 13.247887
511  3 0.0000 30.017415 19.158084  4.743322
512  3 0.0000 32.591186 21.337519 13.247887
513  3 0.0000  4.157889  4.118846  5.864312
514  3 0.0000  6.731661  6.298282 14.368877
515  3 0.0000  6.734479  9.013238  5.864312
516  3 0.0000  9.308250 11.192674 14.368877
517  3 0.0000  9.311068 13.907629  5.864312
518  3 0.0000 11.884840 16.087065 14.368877
519  3 0.0000 11.887658 18.802020  5.864312
520  3 0.0000 14.461430 20.981456 14.368877
521  3 0.0000  9.311832  4.118846  5.864312
522  3 0.0000 11.885604  6.298282 14.368877
523  3 0.0000 11.888422  9.013238  5.864312
524  3 0.0000 14.462194 11.192674 14.368877
525  3 0.0000 14.465012 13.907629  5.864312
526  3 0.0000 17.038783 16.087065 14.368877
527  3 0.0000 17.041601 18.802020  5.864312
528  3 0.0000 19.615373 20.981456 14.368877
529  3 0.0000 14.465776  4.118846  5.864312
530  3 0.0000 17.039547  6.298282 14.368877
531  3 0.0000 17.042365  9.013238  5.864312
532  3 0.0000 19.616137 11.192674 14.368877
533  3 0.0000 19.618955 13.907629  5.864312
534  3 0.0000 22.192727 16.087065 14.368877
535  3 0.0000 22.195545 18.802020  5.864312
536  3 0.0000 24.769316 20.981456 14.368877
537  3 0.0000 19.619719  4.118846  5.864312
538  3 0.0000 22.193491  6.298282 14.368877
539  3 0.0000 22.196309  9.013238  5.864312
540  3 0.0000 24.770080 11.192674 14.368877
541  3 0.0000 24.772898 13.907629  5.864312
542  3 0.0000 27.346670 16.087065 14.368877
543  3 0.0000 27.349488 18.802020  5.864312
544  3 0.0000 29.923259 20.981456 14.368877
545  3 0.0000  6.054196  6.243207  6.869494
546  3 0.0000  8.627968  8.422643 15.374059
547  3 0.0000  8.630786 11.137598  6.869494
548  3 0.0000 11.204557 13.317034 15.374059
549  3 0.0000 11.207375 16.031989  6.869494
550  3 0.0000 13.781147 18.211425 15.374059
551  3 0.0000 13.783965 20.926380  6.869494
552  3 0.0000 16.357737 23.105816 15.374059
553  3 0.0000 11.208139  6.243207  6.869494
554  3 0.0000 13.781911  8.422643 15.374059
555  3 0.0000 13.784729 11.137598  6.869494
556  3 0.0000 16.358501 13.317034 15.374059
557  3 0.0000 16.361319 16.031989  6.869494
558  3 0.0000 18.935090 18.211425 15.374059
559  3 0.0000 18.937908 20.926380  6.869494
560  3 0.0000 21.511680 23.105816 15.374059
561  3 0.0000 16.362083  6.243207  6.869494
562  3 0.0000 18.935854  8.422643 15.374059
563  3 0.0000 18.938672 11.137598  6.869494
564  3 0.0000 21.512444 13.317034 15.374059
565  3 0.0000 21.515262 16.031989  6.869494
566  3 0.0000 24.089034 18.211425 15.374059
567  3 0.0000 24.091852 20.926380  6.869494
568  3 0.0000 26.665623 23.105816 15.374059
569  3 0.0000 21.516026  6.243207  6.869494
570  3 0.0000 24.089798  8.422643 15.374059
571  3 0.0000 24.092616 11.137598  6.869494
572  3 0.0000 26.666387 13.317034 15.374059
573  3 0.0000 26.669205 16.031989  6.869494
574  3 0.0000 29.242977 18.211425 15.374059
575  3 0.0000 29.245795 20.926380  6.869494
576  3 0.0000 31.819567 23.105816 15.374059
577  3 0.0000  8.722711  5.887441  7.989555
578  3 0.0000 11.296482  8.066877 16.494120
579  3 0.0000 11.299301 10.781832  7.989555
580  3 0.0000 13.873072 12.961268 16.494120
581  3 0.0000 13.875890 15.676223  7.989555
582  3 0.0000 16.449662 17.855659 16.494120
583  3 0.0000 16.452480 20.570614  7.989555
584  3 0.0000 19.026251 22.750050 16.494120
585  3 0.0000 13.876654  5.887441  7.989555
586  3 0.0000 16.450426  8.066877 16.494120
587  3 0.0000 16.453244 10.781832  7.989555
588  3 0.0000 19.027015 12.961268 16.494120
589  3 0.0000 19.029834 15.676223  7.989555
590  3 0.0000 21.603605 17.855659 16.494120
591  3 0.0000 21.606423 20.570614  7.989555
592  3 0.0000 24.180195 22.750050 16.494120
593  3 0.0000 19.030598  5.887441  7.989555
594  3 0.0000 21.604369  8.066877 16.494120
595  3 0.0000 21.607187 10.781832  7.989555
596  3 0.0000 24.180959 12.961268 16.494120
597  3 0.0000 24.183777 15.676223  7.989555
598  3 0.0000 26.757548 17.855659 16.494120
599  3 0.0000 26.760366 20.570614  7.989555
600  3 0.0000 29.334138 22.750050 16.494120
601  3 0.0000 24.184541  5.887441  7.989555
602  3 0.0000 26.758312  8.066877 16.494120
603  3 0.0000 26.761130 10.781832  7.989555
604  3 0.0000 29.334902 12.961268 16.494120
605  3 0.0000 29.337720 15.676223  7.989555
606  3 0.0000 31.911492 17.855659 16.494120
607  3 0.0000 31.914310 20.570614  7.989555
608  3 0.0000 34.488081 22.750050 16.494120
609  3 0.0000  5.829349  1.872770  5.225262
610  3 0.0000  8.403120  4.052206 13.729828
611  3 0.0000  8.405938  6.767161  5.225262
612  3 0.0000 10.979710  8.946597 13.729828
613  3 0.0000 10.982528 11.661552  5.225262
614  3 0.0000 13.556300 13.840988 13.729828
615  3 0.0000 13.559118 16.555943  5.225262
616  3 0.0000 16.132889 18.735379 13.729828
617  3 0.0000 10.983292  1.872770  5.225262
618  3 0.0000 13.557064  4.052206 13.729828
619  3 0.0000 13.559882  6.767161  5.225262
620  3 0.0000 16.133653  8.946597 13.729828
621  3 0.0000 16.136471 11.661552  5.225262
622  3 0.0000 18.710243 13.840988 13.729828
623  3 0.0000 18.713061 16.555943  5.225262
624  3 0.0000 21.286833 18.735379 13.729828
625  3 0.0000 16.137235  1.872770  5.225262
626  3 0.0000 18.711007  4.052206 13.729828
627  3 0.0000 18.713825  6.767161  5.225262
628  3 0.0000 21.287597  8.946597 13.729828
629  3 0.0000 21.290415 11.661552  5.225262
630  3 0.0000 23.864186 13.840988 13.729828
631  3 0.0000 23.867004 16.555943  5.225262
632  3 0.0000 26.440776 18.735379 13.729828
633  3 0.0000 21.291179  1.872770  5.225262
634  3 0.0000 23.864950  4.052206 13.729828
635  3 0.0000 23.867768  6.767161  5.225262
636  3 0.0000 26.441540  8.946597 13.729828
637  3 0.0000 26.444358 11.661552  5.225262
638  3 0.0000 29.018129 13.840988 13.729828
639  3 0.0000 29.020948 16.555943  5.225262
640  3 0.0000 31.594719 18.735379 13.729828

