Generated by pymatgen.io.lammps.data.LammpsData

240  atoms

  3  atom types

0.000000 10.267913  xlo xhi
0.000000 17.784548  ylo yhi
0.000000 13.816302  zlo zhi

Masses

1    6.94100
2  180.94788
3   15.99940

Atoms

1    1 0.0000 2.566978  1.482046  0.692301
2    1 0.0000 2.566978 10.374319  0.692301
3    1 0.0000 7.700935  1.482046  0.692301
4    1 0.0000 7.700935 10.374319  0.692301
5    1 0.0000 0.000000  5.928183  0.692301
6    1 0.0000 0.000000 14.820456  0.692301
7    1 0.0000 5.133957  5.928183  0.692301
8    1 0.0000 5.133957 14.820456  0.692301
9    1 0.0000 0.000000  0.000000  2.995018
10   1 0.0000 0.000000  8.892274  2.995018
11   1 0.0000 5.133957  0.000000  2.995018
12   1 0.0000 5.133957  8.892274  2.995018
13   1 0.0000 2.566978  4.446137  2.995018
14   1 0.0000 2.566978 13.338411  2.995018
15   1 0.0000 7.700935  4.446137  2.995018
16   1 0.0000 7.700935 13.338411  2.995018
17   1 0.0000 0.000000  2.964091  5.297735
18   1 0.0000 0.000000 11.856365  5.297735
19   1 0.0000 5.133957  2.964091  5.297735
20   1 0.0000 5.133957 11.856365  5.297735
21   1 0.0000 2.566978  7.410228  5.297735
22   1 0.0000 2.566978 16.302502  5.297735
23   1 0.0000 7.700935  7.410228  5.297735
24   1 0.0000 7.700935 16.302502  5.297735
25   1 0.0000 2.566978  1.482046  7.600452
26   1 0.0000 2.566978 10.374319  7.600452
27   1 0.0000 7.700935  1.482046  7.600452
28   1 0.0000 7.700935 10.374319  7.600452
29   1 0.0000 0.000000  5.928183  7.600452
30   1 0.0000 0.000000 14.820456  7.600452
31   1 0.0000 5.133957  5.928183  7.600452
32   1 0.0000 5.133957 14.820456  7.600452
33   1 0.0000 0.000000  0.000000  9.903169
34   1 0.0000 0.000000  8.892274  9.903169
35   1 0.0000 5.133957  0.000000  9.903169
36   1 0.0000 5.133957  8.892274  9.903169
37   1 0.0000 2.566978  4.446137  9.903169
38   1 0.0000 2.566978 13.338411  9.903169
39   1 0.0000 7.700935  4.446137  9.903169
40   1 0.0000 7.700935 13.338411  9.903169
41   1 0.0000 0.000000  2.964091 12.205886
42   1 0.0000 0.000000 11.856365 12.205886
43   1 0.0000 5.133957  2.964091 12.205886
44   1 0.0000 5.133957 11.856365 12.205886
45   1 0.0000 2.566978  7.410228 12.205886
46   1 0.0000 2.566978 16.302502 12.205886
47   1 0.0000 7.700935  7.410228 12.205886
48   1 0.0000 7.700935 16.302502 12.205886
49   2 0.0000 0.000000  0.000000  0.007397
50   2 0.0000 0.000000  8.892274  0.007397
51   2 0.0000 5.133957  0.000000  0.007397
52   2 0.0000 5.133957  8.892274  0.007397
53   2 0.0000 2.566978  4.446137  0.007397
54   2 0.0000 2.566978 13.338411  0.007397
55   2 0.0000 7.700935  4.446137  0.007397
56   2 0.0000 7.700935 13.338411  0.007397
57   2 0.0000 0.000000  2.964091  2.310114
58   2 0.0000 0.000000 11.856365  2.310114
59   2 0.0000 5.133957  2.964091  2.310114
60   2 0.0000 5.133957 11.856365  2.310114
61   2 0.0000 2.566978  7.410228  2.310114
62   2 0.0000 2.566978 16.302502  2.310114
63   2 0.0000 7.700935  7.410228  2.310114
64   2 0.0000 7.700935 16.302502  2.310114
65   2 0.0000 2.566978  1.482046  4.612831
66   2 0.0000 2.566978 10.374319  4.612831
67   2 0.0000 7.700935  1.482046  4.612831
68   2 0.0000 7.700935 10.374319  4.612831
69   2 0.0000 0.000000  5.928183  4.612831
70   2 0.0000 0.000000 14.820456  4.612831
71   2 0.0000 5.133957  5.928183  4.612831
72   2 0.0000 5.133957 14.820456  4.612831
73   2 0.0000 0.000000  0.000000  6.915548
74   2 0.0000 0.000000  8.892274  6.915548
75   2 0.0000 5.133957  0.000000  6.915548
76   2 0.0000 5.133957  8.892274  6.915548
77   2 0.0000 2.566978  4.446137  6.915548
78   2 0.0000 2.566978 13.338411  6.915548
79   2 0.0000 7.700935  4.446137  6.915548
80   2 0.0000 7.700935 13.338411  6.915548
81   2 0.0000 0.000000  2.964091  9.218265
82   2 0.0000 0.000000 11.856365  9.218265
83   2 0.0000 5.133957  2.964091  9.218265
84   2 0.0000 5.133957 11.856365  9.218265
85   2 0.0000 2.566978  7.410228  9.218265
86   2 0.0000 2.566978 16.302502  9.218265
87   2 0.0000 7.700935  7.410228  9.218265
88   2 0.0000 7.700935 16.302502  9.218265
89   2 0.0000 2.566978  1.482046 11.520982
90   2 0.0000 2.566978 10.374319 11.520982
91   2 0.0000 7.700935  1.482046 11.520982
92   2 0.0000 7.700935 10.374319 11.520982
93   2 0.0000 0.000000  5.928183 11.520982
94   2 0.0000 0.000000 14.820456 11.520982
95   2 0.0000 5.133957  5.928183 11.520982
96   2 0.0000 5.133957 14.820456 11.520982
97   3 0.0000 1.000753  4.290037  1.356261
98   3 0.0000 1.000753 13.182311  1.356261
99   3 0.0000 6.134709  4.290037  1.356261
100  3 0.0000 6.134709 13.182311  1.356261
101  3 0.0000 3.567731  8.736174  1.356261
102  3 0.0000 3.567731 17.628448  1.356261
103  3 0.0000 8.701688  8.736174  1.356261
104  3 0.0000 8.701688 17.628448  1.356261
105  3 0.0000 1.566226  2.807991  3.658978
106  3 0.0000 1.566226 11.700265  3.658978
107  3 0.0000 6.700183  2.807991  3.658978
108  3 0.0000 6.700183 11.700265  3.658978
109  3 0.0000 4.133204  7.254128  3.658978
110  3 0.0000 4.133204 16.146402  3.658978
111  3 0.0000 9.267161  7.254128  3.658978
112  3 0.0000 9.267161 16.146402  3.658978
113  3 0.0000 4.486030  4.398533  3.658978
114  3 0.0000 4.486030 13.290806  3.658978
115  3 0.0000 9.619987  4.398533  3.658978
116  3 0.0000 9.619987 13.290806  3.658978
117  3 0.0000 1.919052  8.844670  3.658978
118  3 0.0000 1.919052 17.736943  3.658978
119  3 0.0000 7.053009  8.844670  3.658978
120  3 0.0000 7.053009 17.736943  3.658978
121  3 0.0000 4.215657  1.685750  3.658978
122  3 0.0000 4.215657 10.578024  3.658978
123  3 0.0000 9.349614  1.685750  3.658978
124  3 0.0000 9.349614 10.578024  3.658978
125  3 0.0000 1.648679  6.131887  3.658978
126  3 0.0000 1.648679 15.024161  3.658978
127  3 0.0000 6.782636  6.131887  3.658978
128  3 0.0000 6.782636 15.024161  3.658978
129  3 0.0000 0.647926  1.434441  1.356261
130  3 0.0000 0.647926 10.326715  1.356261
131  3 0.0000 5.781883  1.434441  1.356261
132  3 0.0000 5.781883 10.326715  1.356261
133  3 0.0000 3.214905  5.880578  1.356261
134  3 0.0000 3.214905 14.772852  1.356261
135  3 0.0000 8.348862  5.880578  1.356261
136  3 0.0000 8.348862 14.772852  1.356261
137  3 0.0000 3.485278  3.167795  1.356261
138  3 0.0000 3.485278 12.060069  1.356261
139  3 0.0000 8.619234  3.167795  1.356261
140  3 0.0000 8.619234 12.060069  1.356261
141  3 0.0000 0.918299  7.613932  1.356261
142  3 0.0000 0.918299 16.506206  1.356261
143  3 0.0000 6.052256  7.613932  1.356261
144  3 0.0000 6.052256 16.506206  1.356261
145  3 0.0000 1.000753  1.325946  5.961695
146  3 0.0000 1.000753 10.218220  5.961695
147  3 0.0000 6.134709  1.325946  5.961695
148  3 0.0000 6.134709 10.218220  5.961695
149  3 0.0000 3.567731  5.772083  5.961695
150  3 0.0000 3.567731 14.664357  5.961695
151  3 0.0000 8.701688  5.772083  5.961695
152  3 0.0000 8.701688 14.664357  5.961695
153  3 0.0000 4.133204  4.290037  8.264412
154  3 0.0000 4.133204 13.182311  8.264412
155  3 0.0000 9.267161  4.290037  8.264412
156  3 0.0000 9.267161 13.182311  8.264412
157  3 0.0000 1.566226  8.736174  8.264412
158  3 0.0000 1.566226 17.628448  8.264412
159  3 0.0000 6.700183  8.736174  8.264412
160  3 0.0000 6.700183 17.628448  8.264412
161  3 0.0000 4.486030  1.434441  8.264412
162  3 0.0000 4.486030 10.326715  8.264412
163  3 0.0000 9.619987  1.434441  8.264412
164  3 0.0000 9.619987 10.326715  8.264412
165  3 0.0000 1.919052  5.880578  8.264412
166  3 0.0000 1.919052 14.772852  8.264412
167  3 0.0000 7.053009  5.880578  8.264412
168  3 0.0000 7.053009 14.772852  8.264412
169  3 0.0000 1.648679  3.167795  8.264412
170  3 0.0000 1.648679 12.060069  8.264412
171  3 0.0000 6.782636  3.167795  8.264412
172  3 0.0000 6.782636 12.060069  8.264412
173  3 0.0000 4.215657  7.613932  8.264412
174  3 0.0000 4.215657 16.506206  8.264412
175  3 0.0000 9.349614  7.613932  8.264412
176  3 0.0000 9.349614 16.506206  8.264412
177  3 0.0000 3.214905  2.916487  5.961695
178  3 0.0000 3.214905 11.808761  5.961695
179  3 0.0000 8.348862  2.916487  5.961695
180  3 0.0000 8.348862 11.808761  5.961695
181  3 0.0000 0.647926  7.362624  5.961695
182  3 0.0000 0.647926 16.254898  5.961695
183  3 0.0000 5.781883  7.362624  5.961695
184  3 0.0000 5.781883 16.254898  5.961695
185  3 0.0000 3.485278  0.203704  5.961695
186  3 0.0000 3.485278  9.095978  5.961695
187  3 0.0000 8.619234  0.203704  5.961695
188  3 0.0000 8.619234  9.095978  5.961695
189  3 0.0000 0.918299  4.649841  5.961695
190  3 0.0000 0.918299 13.542115  5.961695
191  3 0.0000 6.052256  4.649841  5.961695
192  3 0.0000 6.052256 13.542115  5.961695
193  3 0.0000 3.567731  2.807991 10.567129
194  3 0.0000 3.567731 11.700265 10.567129
195  3 0.0000 8.701688  2.807991 10.567129
196  3 0.0000 8.701688 11.700265 10.567129
197  3 0.0000 1.000753  7.254128 10.567129
198  3 0.0000 1.000753 16.146402 10.567129
199  3 0.0000 6.134709  7.254128 10.567129
200  3 0.0000 6.134709 16.146402 10.567129
201  3 0.0000 4.133204  1.325946 12.869846
202  3 0.0000 4.133204 10.218220 12.869846
203  3 0.0000 9.267161  1.325946 12.869846
204  3 0.0000 9.267161 10.218220 12.869846
205  3 0.0000 1.566226  5.772083 12.869846
206  3 0.0000 1.566226 14.664357 12.869846
207  3 0.0000 6.700183  5.772083 12.869846
208  3 0.0000 6.700183 14.664357 12.869846
209  3 0.0000 1.919052  2.916487 12.869846
210  3 0.0000 1.919052 11.808761 12.869846
211  3 0.0000 7.053009  2.916487 12.869846
212  3 0.0000 7.053009 11.808761 12.869846
213  3 0.0000 4.486030  7.362624 12.869846
214  3 0.0000 4.486030 16.254898 12.869846
215  3 0.0000 9.619987  7.362624 12.869846
216  3 0.0000 9.619987 16.254898 12.869846
217  3 0.0000 1.648679  0.203704 12.869846
218  3 0.0000 1.648679  9.095978 12.869846
219  3 0.0000 6.782636  0.203704 12.869846
220  3 0.0000 6.782636  9.095978 12.869846
221  3 0.0000 4.215657  4.649841 12.869846
222  3 0.0000 4.215657 13.542115 12.869846
223  3 0.0000 9.349614  4.649841 12.869846
224  3 0.0000 9.349614 13.542115 12.869846
225  3 0.0000 0.647926  4.398533 10.567129
226  3 0.0000 0.647926 13.290806 10.567129
227  3 0.0000 5.781883  4.398533 10.567129
228  3 0.0000 5.781883 13.290806 10.567129
229  3 0.0000 3.214905  8.844670 10.567129
230  3 0.0000 3.214905 17.736943 10.567129
231  3 0.0000 8.348862  8.844670 10.567129
232  3 0.0000 8.348862 17.736943 10.567129
233  3 0.0000 0.918299  1.685750 10.567129
234  3 0.0000 0.918299 10.578024 10.567129
235  3 0.0000 6.052256  1.685750 10.567129
236  3 0.0000 6.052256 10.578024 10.567129
237  3 0.0000 3.485278  6.131887 10.567129
238  3 0.0000 3.485278 15.024161 10.567129
239  3 0.0000 8.619234  6.131887 10.567129
240  3 0.0000 8.619234 15.024161 10.567129

