Generated by pymatgen.io.lammps.data.LammpsData

1750  atoms

   3  atom types

0.000000 29.344829  xlo xhi
0.000000 25.413639  ylo yhi
0.000000 23.960488  zlo zhi
14.671403 14.671504 8.471074  xy xz yz

Masses

1  51.9961
2  63.5460
3  15.9994

Atoms

1     1 0.0000  4.401633  0.847107  2.396049
2     1 0.0000  7.335934  2.541322  7.188146
3     1 0.0000 10.270235  4.235537 11.980244
4     1 0.0000 13.204536  5.929752 16.772342
5     1 0.0000 16.138837  7.623966 21.564439
6     1 0.0000  7.335914  5.929835  2.396049
7     1 0.0000 10.270215  7.624050  7.188146
8     1 0.0000 13.204516  9.318265 11.980244
9     1 0.0000 16.138816 11.012479 16.772342
10    1 0.0000 19.073117 12.706694 21.564439
11    1 0.0000 10.270194 11.012563  2.396049
12    1 0.0000 13.204495 12.706778  7.188146
13    1 0.0000 16.138796 14.400993 11.980244
14    1 0.0000 19.073097 16.095207 16.772342
15    1 0.0000 22.007398 17.789422 21.564439
16    1 0.0000 13.204475 16.095291  2.396049
17    1 0.0000 16.138776 17.789506  7.188146
18    1 0.0000 19.073077 19.483720 11.980244
19    1 0.0000 22.007377 21.177935 16.772342
20    1 0.0000 24.941678 22.872150 21.564439
21    1 0.0000 16.138755 21.178019  2.396049
22    1 0.0000 19.073056 22.872234  7.188146
23    1 0.0000 22.007357 24.566448 11.980244
24    1 0.0000 24.941658 26.260663 16.772342
25    1 0.0000 27.875959 27.954878 21.564439
26    1 0.0000 10.270599  0.847107  2.396049
27    1 0.0000 13.204900  2.541322  7.188146
28    1 0.0000 16.139201  4.235537 11.980244
29    1 0.0000 19.073502  5.929752 16.772342
30    1 0.0000 22.007803  7.623966 21.564439
31    1 0.0000 13.204880  5.929835  2.396049
32    1 0.0000 16.139181  7.624050  7.188146
33    1 0.0000 19.073481  9.318265 11.980244
34    1 0.0000 22.007782 11.012479 16.772342
35    1 0.0000 24.942083 12.706694 21.564439
36    1 0.0000 16.139160 11.012563  2.396049
37    1 0.0000 19.073461 12.706778  7.188146
38    1 0.0000 22.007762 14.400993 11.980244
39    1 0.0000 24.942063 16.095207 16.772342
40    1 0.0000 27.876364 17.789422 21.564439
41    1 0.0000 19.073441 16.095291  2.396049
42    1 0.0000 22.007742 17.789506  7.188146
43    1 0.0000 24.942042 19.483720 11.980244
44    1 0.0000 27.876343 21.177935 16.772342
45    1 0.0000 30.810644 22.872150 21.564439
46    1 0.0000 22.007721 21.178019  2.396049
47    1 0.0000 24.942022 22.872234  7.188146
48    1 0.0000 27.876323 24.566448 11.980244
49    1 0.0000 30.810624 26.260663 16.772342
50    1 0.0000 33.744925 27.954878 21.564439
51    1 0.0000 16.139565  0.847107  2.396049
52    1 0.0000 19.073866  2.541322  7.188146
53    1 0.0000 22.008167  4.235537 11.980244
54    1 0.0000 24.942468  5.929752 16.772342
55    1 0.0000 27.876768  7.623966 21.564439
56    1 0.0000 19.073846  5.929835  2.396049
57    1 0.0000 22.008146  7.624050  7.188146
58    1 0.0000 24.942447  9.318265 11.980244
59    1 0.0000 27.876748 11.012479 16.772342
60    1 0.0000 30.811049 12.706694 21.564439
61    1 0.0000 22.008126 11.012563  2.396049
62    1 0.0000 24.942427 12.706778  7.188146
63    1 0.0000 27.876728 14.400993 11.980244
64    1 0.0000 30.811029 16.095207 16.772342
65    1 0.0000 33.745329 17.789422 21.564439
66    1 0.0000 24.942407 16.095291  2.396049
67    1 0.0000 27.876707 17.789506  7.188146
68    1 0.0000 30.811008 19.483720 11.980244
69    1 0.0000 33.745309 21.177935 16.772342
70    1 0.0000 36.679610 22.872150 21.564439
71    1 0.0000 27.876687 21.178019  2.396049
72    1 0.0000 30.810988 22.872234  7.188146
73    1 0.0000 33.745289 24.566448 11.980244
74    1 0.0000 36.679590 26.260663 16.772342
75    1 0.0000 39.613890 27.954878 21.564439
76    1 0.0000 22.008531  0.847107  2.396049
77    1 0.0000 24.942832  2.541322  7.188146
78    1 0.0000 27.877133  4.235537 11.980244
79    1 0.0000 30.811433  5.929752 16.772342
80    1 0.0000 33.745734  7.623966 21.564439
81    1 0.0000 24.942811  5.929835  2.396049
82    1 0.0000 27.877112  7.624050  7.188146
83    1 0.0000 30.811413  9.318265 11.980244
84    1 0.0000 33.745714 11.012479 16.772342
85    1 0.0000 36.680015 12.706694 21.564439
86    1 0.0000 27.877092 11.012563  2.396049
87    1 0.0000 30.811393 12.706778  7.188146
88    1 0.0000 33.745694 14.400993 11.980244
89    1 0.0000 36.679994 16.095207 16.772342
90    1 0.0000 39.614295 17.789422 21.564439
91    1 0.0000 30.811372 16.095291  2.396049
92    1 0.0000 33.745673 17.789506  7.188146
93    1 0.0000 36.679974 19.483720 11.980244
94    1 0.0000 39.614275 21.177935 16.772342
95    1 0.0000 42.548576 22.872150 21.564439
96    1 0.0000 33.745653 21.178019  2.396049
97    1 0.0000 36.679954 22.872234  7.188146
98    1 0.0000 39.614255 24.566448 11.980244
99    1 0.0000 42.548555 26.260663 16.772342
100   1 0.0000 45.482856 27.954878 21.564439
101   1 0.0000 27.877497  0.847107  2.396049
102   1 0.0000 30.811798  2.541322  7.188146
103   1 0.0000 33.746098  4.235537 11.980244
104   1 0.0000 36.680399  5.929752 16.772342
105   1 0.0000 39.614700  7.623966 21.564439
106   1 0.0000 30.811777  5.929835  2.396049
107   1 0.0000 33.746078  7.624050  7.188146
108   1 0.0000 36.680379  9.318265 11.980244
109   1 0.0000 39.614680 11.012479 16.772342
110   1 0.0000 42.548981 12.706694 21.564439
111   1 0.0000 33.746058 11.012563  2.396049
112   1 0.0000 36.680359 12.706778  7.188146
113   1 0.0000 39.614659 14.400993 11.980244
114   1 0.0000 42.548960 16.095207 16.772342
115   1 0.0000 45.483261 17.789422 21.564439
116   1 0.0000 36.680338 16.095291  2.396049
117   1 0.0000 39.614639 17.789506  7.188146
118   1 0.0000 42.548940 19.483720 11.980244
119   1 0.0000 45.483241 21.177935 16.772342
120   1 0.0000 48.417542 22.872150 21.564439
121   1 0.0000 39.614619 21.178019  2.396049
122   1 0.0000 42.548920 22.872234  7.188146
123   1 0.0000 45.483220 24.566448 11.980244
124   1 0.0000 48.417521 26.260663 16.772342
125   1 0.0000 51.351822 27.954878 21.564439
126   1 0.0000  2.934291  3.388471  2.396049
127   1 0.0000  5.868592  5.082686  7.188146
128   1 0.0000  8.802892  6.776901 11.980244
129   1 0.0000 11.737193  8.471115 16.772342
130   1 0.0000 14.671494 10.165330 21.564439
131   1 0.0000  5.868571  8.471199  2.396049
132   1 0.0000  8.802872 10.165414  7.188146
133   1 0.0000 11.737173 11.859629 11.980244
134   1 0.0000 14.671474 13.553843 16.772342
135   1 0.0000 17.605775 15.248058 21.564439
136   1 0.0000  8.802852 13.553927  2.396049
137   1 0.0000 11.737153 15.248142  7.188146
138   1 0.0000 14.671453 16.942357 11.980244
139   1 0.0000 17.605754 18.636571 16.772342
140   1 0.0000 20.540055 20.330786 21.564439
141   1 0.0000 11.737132 18.636655  2.396049
142   1 0.0000 14.671433 20.330870  7.188146
143   1 0.0000 17.605734 22.025084 11.980244
144   1 0.0000 20.540035 23.719299 16.772342
145   1 0.0000 23.474336 25.413514 21.564439
146   1 0.0000 14.671413 23.719383  2.396049
147   1 0.0000 17.605714 25.413598  7.188146
148   1 0.0000 20.540014 27.107812 11.980244
149   1 0.0000 23.474315 28.802027 16.772342
150   1 0.0000 26.408616 30.496242 21.564439
151   1 0.0000  8.803257  3.388471  2.396049
152   1 0.0000 11.737557  5.082686  7.188146
153   1 0.0000 14.671858  6.776901 11.980244
154   1 0.0000 17.606159  8.471115 16.772342
155   1 0.0000 20.540460 10.165330 21.564439
156   1 0.0000 11.737537  8.471199  2.396049
157   1 0.0000 14.671838 10.165414  7.188146
158   1 0.0000 17.606139 11.859629 11.980244
159   1 0.0000 20.540440 13.553843 16.772342
160   1 0.0000 23.474740 15.248058 21.564439
161   1 0.0000 14.671818 13.553927  2.396049
162   1 0.0000 17.606118 15.248142  7.188146
163   1 0.0000 20.540419 16.942357 11.980244
164   1 0.0000 23.474720 18.636571 16.772342
165   1 0.0000 26.409021 20.330786 21.564439
166   1 0.0000 17.606098 18.636655  2.396049
167   1 0.0000 20.540399 20.330870  7.188146
168   1 0.0000 23.474700 22.025084 11.980244
169   1 0.0000 26.409001 23.719299 16.772342
170   1 0.0000 29.343301 25.413514 21.564439
171   1 0.0000 20.540379 23.719383  2.396049
172   1 0.0000 23.474679 25.413598  7.188146
173   1 0.0000 26.408980 27.107812 11.980244
174   1 0.0000 29.343281 28.802027 16.772342
175   1 0.0000 32.277582 30.496242 21.564439
176   1 0.0000 14.672222  3.388471  2.396049
177   1 0.0000 17.606523  5.082686  7.188146
178   1 0.0000 20.540824  6.776901 11.980244
179   1 0.0000 23.475125  8.471115 16.772342
180   1 0.0000 26.409426 10.165330 21.564439
181   1 0.0000 17.606503  8.471199  2.396049
182   1 0.0000 20.540804 10.165414  7.188146
183   1 0.0000 23.475105 11.859629 11.980244
184   1 0.0000 26.409405 13.553843 16.772342
185   1 0.0000 29.343706 15.248058 21.564439
186   1 0.0000 20.540783 13.553927  2.396049
187   1 0.0000 23.475084 15.248142  7.188146
188   1 0.0000 26.409385 16.942357 11.980244
189   1 0.0000 29.343686 18.636571 16.772342
190   1 0.0000 32.277987 20.330786 21.564439
191   1 0.0000 23.475064 18.636655  2.396049
192   1 0.0000 26.409365 20.330870  7.188146
193   1 0.0000 29.343666 22.025084 11.980244
194   1 0.0000 32.277966 23.719299 16.772342
195   1 0.0000 35.212267 25.413514 21.564439
196   1 0.0000 26.409344 23.719383  2.396049
197   1 0.0000 29.343645 25.413598  7.188146
198   1 0.0000 32.277946 27.107812 11.980244
199   1 0.0000 35.212247 28.802027 16.772342
200   1 0.0000 38.146548 30.496242 21.564439
201   1 0.0000 20.541188  3.388471  2.396049
202   1 0.0000 23.475489  5.082686  7.188146
203   1 0.0000 26.409790  6.776901 11.980244
204   1 0.0000 29.344091  8.471115 16.772342
205   1 0.0000 32.278392 10.165330 21.564439
206   1 0.0000 23.475469  8.471199  2.396049
207   1 0.0000 26.409770 10.165414  7.188146
208   1 0.0000 29.344070 11.859629 11.980244
209   1 0.0000 32.278371 13.553843 16.772342
210   1 0.0000 35.212672 15.248058 21.564439
211   1 0.0000 26.409749 13.553927  2.396049
212   1 0.0000 29.344050 15.248142  7.188146
213   1 0.0000 32.278351 16.942357 11.980244
214   1 0.0000 35.212652 18.636571 16.772342
215   1 0.0000 38.146953 20.330786 21.564439
216   1 0.0000 29.344030 18.636655  2.396049
217   1 0.0000 32.278331 20.330870  7.188146
218   1 0.0000 35.212631 22.025084 11.980244
219   1 0.0000 38.146932 23.719299 16.772342
220   1 0.0000 41.081233 25.413514 21.564439
221   1 0.0000 32.278310 23.719383  2.396049
222   1 0.0000 35.212611 25.413598  7.188146
223   1 0.0000 38.146912 27.107812 11.980244
224   1 0.0000 41.081213 28.802027 16.772342
225   1 0.0000 44.015514 30.496242 21.564439
226   1 0.0000 26.410154  3.388471  2.396049
227   1 0.0000 29.344455  5.082686  7.188146
228   1 0.0000 32.278756  6.776901 11.980244
229   1 0.0000 35.213057  8.471115 16.772342
230   1 0.0000 38.147357 10.165330 21.564439
231   1 0.0000 29.344435  8.471199  2.396049
232   1 0.0000 32.278735 10.165414  7.188146
233   1 0.0000 35.213036 11.859629 11.980244
234   1 0.0000 38.147337 13.553843 16.772342
235   1 0.0000 41.081638 15.248058 21.564439
236   1 0.0000 32.278715 13.553927  2.396049
237   1 0.0000 35.213016 15.248142  7.188146
238   1 0.0000 38.147317 16.942357 11.980244
239   1 0.0000 41.081618 18.636571 16.772342
240   1 0.0000 44.015919 20.330786 21.564439
241   1 0.0000 35.212996 18.636655  2.396049
242   1 0.0000 38.147296 20.330870  7.188146
243   1 0.0000 41.081597 22.025084 11.980244
244   1 0.0000 44.015898 23.719299 16.772342
245   1 0.0000 46.950199 25.413514 21.564439
246   1 0.0000 38.147276 23.719383  2.396049
247   1 0.0000 41.081577 25.413598  7.188146
248   1 0.0000 44.015878 27.107812 11.980244
249   1 0.0000 46.950179 28.802027 16.772342
250   1 0.0000 49.884480 30.496242 21.564439
251   1 0.0000  4.401623  2.541364  0.000000
252   1 0.0000  7.335924  4.235579  4.792098
253   1 0.0000 10.270225  5.929793  9.584195
254   1 0.0000 13.204526  7.624008 14.376293
255   1 0.0000 16.138827  9.318223 19.168391
256   1 0.0000  7.335904  7.624092  0.000000
257   1 0.0000 10.270205  9.318307  4.792098
258   1 0.0000 13.204505 11.012521  9.584195
259   1 0.0000 16.138806 12.706736 14.376293
260   1 0.0000 19.073107 14.400951 19.168391
261   1 0.0000 10.270184 12.706820  0.000000
262   1 0.0000 13.204485 14.401034  4.792098
263   1 0.0000 16.138786 16.095249  9.584195
264   1 0.0000 19.073087 17.789464 14.376293
265   1 0.0000 22.007388 19.483679 19.168391
266   1 0.0000 13.204465 17.789548  0.000000
267   1 0.0000 16.138766 19.483762  4.792098
268   1 0.0000 19.073066 21.177977  9.584195
269   1 0.0000 22.007367 22.872192 14.376293
270   1 0.0000 24.941668 24.566406 19.168391
271   1 0.0000 16.138745 22.872275  0.000000
272   1 0.0000 19.073046 24.566490  4.792098
273   1 0.0000 22.007347 26.260705  9.584195
274   1 0.0000 24.941648 27.954920 14.376293
275   1 0.0000 27.875949 29.649134 19.168391
276   1 0.0000 10.270589  2.541364  0.000000
277   1 0.0000 13.204890  4.235579  4.792098
278   1 0.0000 16.139191  5.929793  9.584195
279   1 0.0000 19.073492  7.624008 14.376293
280   1 0.0000 22.007792  9.318223 19.168391
281   1 0.0000 13.204870  7.624092  0.000000
282   1 0.0000 16.139170  9.318307  4.792098
283   1 0.0000 19.073471 11.012521  9.584195
284   1 0.0000 22.007772 12.706736 14.376293
285   1 0.0000 24.942073 14.400951 19.168391
286   1 0.0000 16.139150 12.706820  0.000000
287   1 0.0000 19.073451 14.401034  4.792098
288   1 0.0000 22.007752 16.095249  9.584195
289   1 0.0000 24.942053 17.789464 14.376293
290   1 0.0000 27.876353 19.483679 19.168391
291   1 0.0000 19.073431 17.789548  0.000000
292   1 0.0000 22.007731 19.483762  4.792098
293   1 0.0000 24.942032 21.177977  9.584195
294   1 0.0000 27.876333 22.872192 14.376293
295   1 0.0000 30.810634 24.566406 19.168391
296   1 0.0000 22.007711 22.872275  0.000000
297   1 0.0000 24.942012 24.566490  4.792098
298   1 0.0000 27.876313 26.260705  9.584195
299   1 0.0000 30.810614 27.954920 14.376293
300   1 0.0000 33.744914 29.649134 19.168391
301   1 0.0000 16.139555  2.541364  0.000000
302   1 0.0000 19.073856  4.235579  4.792098
303   1 0.0000 22.008157  5.929793  9.584195
304   1 0.0000 24.942457  7.624008 14.376293
305   1 0.0000 27.876758  9.318223 19.168391
306   1 0.0000 19.073835  7.624092  0.000000
307   1 0.0000 22.008136  9.318307  4.792098
308   1 0.0000 24.942437 11.012521  9.584195
309   1 0.0000 27.876738 12.706736 14.376293
310   1 0.0000 30.811039 14.400951 19.168391
311   1 0.0000 22.008116 12.706820  0.000000
312   1 0.0000 24.942417 14.401034  4.792098
313   1 0.0000 27.876718 16.095249  9.584195
314   1 0.0000 30.811018 17.789464 14.376293
315   1 0.0000 33.745319 19.483679 19.168391
316   1 0.0000 24.942396 17.789548  0.000000
317   1 0.0000 27.876697 19.483762  4.792098
318   1 0.0000 30.810998 21.177977  9.584195
319   1 0.0000 33.745299 22.872192 14.376293
320   1 0.0000 36.679600 24.566406 19.168391
321   1 0.0000 27.876677 22.872275  0.000000
322   1 0.0000 30.810978 24.566490  4.792098
323   1 0.0000 33.745279 26.260705  9.584195
324   1 0.0000 36.679579 27.954920 14.376293
325   1 0.0000 39.613880 29.649134 19.168391
326   1 0.0000 22.008521  2.541364  0.000000
327   1 0.0000 24.942822  4.235579  4.792098
328   1 0.0000 27.877122  5.929793  9.584195
329   1 0.0000 30.811423  7.624008 14.376293
330   1 0.0000 33.745724  9.318223 19.168391
331   1 0.0000 24.942801  7.624092  0.000000
332   1 0.0000 27.877102  9.318307  4.792098
333   1 0.0000 30.811403 11.012521  9.584195
334   1 0.0000 33.745704 12.706736 14.376293
335   1 0.0000 36.680005 14.400951 19.168391
336   1 0.0000 27.877082 12.706820  0.000000
337   1 0.0000 30.811383 14.401034  4.792098
338   1 0.0000 33.745683 16.095249  9.584195
339   1 0.0000 36.679984 17.789464 14.376293
340   1 0.0000 39.614285 19.483679 19.168391
341   1 0.0000 30.811362 17.789548  0.000000
342   1 0.0000 33.745663 19.483762  4.792098
343   1 0.0000 36.679964 21.177977  9.584195
344   1 0.0000 39.614265 22.872192 14.376293
345   1 0.0000 42.548566 24.566406 19.168391
346   1 0.0000 33.745643 22.872275  0.000000
347   1 0.0000 36.679944 24.566490  4.792098
348   1 0.0000 39.614244 26.260705  9.584195
349   1 0.0000 42.548545 27.954920 14.376293
350   1 0.0000 45.482846 29.649134 19.168391
351   1 0.0000 27.877487  2.541364  0.000000
352   1 0.0000 30.811787  4.235579  4.792098
353   1 0.0000 33.746088  5.929793  9.584195
354   1 0.0000 36.680389  7.624008 14.376293
355   1 0.0000 39.614690  9.318223 19.168391
356   1 0.0000 30.811767  7.624092  0.000000
357   1 0.0000 33.746068  9.318307  4.792098
358   1 0.0000 36.680369 11.012521  9.584195
359   1 0.0000 39.614670 12.706736 14.376293
360   1 0.0000 42.548970 14.400951 19.168391
361   1 0.0000 33.746048 12.706820  0.000000
362   1 0.0000 36.680348 14.401034  4.792098
363   1 0.0000 39.614649 16.095249  9.584195
364   1 0.0000 42.548950 17.789464 14.376293
365   1 0.0000 45.483251 19.483679 19.168391
366   1 0.0000 36.680328 17.789548  0.000000
367   1 0.0000 39.614629 19.483762  4.792098
368   1 0.0000 42.548930 21.177977  9.584195
369   1 0.0000 45.483231 22.872192 14.376293
370   1 0.0000 48.417531 24.566406 19.168391
371   1 0.0000 39.614609 22.872275  0.000000
372   1 0.0000 42.548909 24.566490  4.792098
373   1 0.0000 45.483210 26.260705  9.584195
374   1 0.0000 48.417511 27.954920 14.376293
375   1 0.0000 51.351812 29.649134 19.168391
376   1 0.0000  5.868774  3.388471  2.396049
377   1 0.0000  8.803074  5.082686  7.188146
378   1 0.0000 11.737375  6.776901 11.980244
379   1 0.0000 14.671676  8.471115 16.772342
380   1 0.0000 17.605977 10.165330 21.564439
381   1 0.0000  8.803054  8.471199  2.396049
382   1 0.0000 11.737355 10.165414  7.188146
383   1 0.0000 14.671656 11.859629 11.980244
384   1 0.0000 17.605957 13.553843 16.772342
385   1 0.0000 20.540258 15.248058 21.564439
386   1 0.0000 11.737335 13.553927  2.396049
387   1 0.0000 14.671635 15.248142  7.188146
388   1 0.0000 17.605936 16.942357 11.980244
389   1 0.0000 20.540237 18.636571 16.772342
390   1 0.0000 23.474538 20.330786 21.564439
391   1 0.0000 14.671615 18.636655  2.396049
392   1 0.0000 17.605916 20.330870  7.188146
393   1 0.0000 20.540217 22.025084 11.980244
394   1 0.0000 23.474518 23.719299 16.772342
395   1 0.0000 26.408819 25.413514 21.564439
396   1 0.0000 17.605896 23.719383  2.396049
397   1 0.0000 20.540196 25.413598  7.188146
398   1 0.0000 23.474497 27.107812 11.980244
399   1 0.0000 26.408798 28.802027 16.772342
400   1 0.0000 29.343099 30.496242 21.564439
401   1 0.0000 11.737739  3.388471  2.396049
402   1 0.0000 14.672040  5.082686  7.188146
403   1 0.0000 17.606341  6.776901 11.980244
404   1 0.0000 20.540642  8.471115 16.772342
405   1 0.0000 23.474943 10.165330 21.564439
406   1 0.0000 14.672020  8.471199  2.396049
407   1 0.0000 17.606321 10.165414  7.188146
408   1 0.0000 20.540622 11.859629 11.980244
409   1 0.0000 23.474923 13.553843 16.772342
410   1 0.0000 26.409223 15.248058 21.564439
411   1 0.0000 17.606300 13.553927  2.396049
412   1 0.0000 20.540601 15.248142  7.188146
413   1 0.0000 23.474902 16.942357 11.980244
414   1 0.0000 26.409203 18.636571 16.772342
415   1 0.0000 29.343504 20.330786 21.564439
416   1 0.0000 20.540581 18.636655  2.396049
417   1 0.0000 23.474882 20.330870  7.188146
418   1 0.0000 26.409183 22.025084 11.980244
419   1 0.0000 29.343484 23.719299 16.772342
420   1 0.0000 32.277784 25.413514 21.564439
421   1 0.0000 23.474861 23.719383  2.396049
422   1 0.0000 26.409162 25.413598  7.188146
423   1 0.0000 29.343463 27.107812 11.980244
424   1 0.0000 32.277764 28.802027 16.772342
425   1 0.0000 35.212065 30.496242 21.564439
426   1 0.0000 17.606705  3.388471  2.396049
427   1 0.0000 20.541006  5.082686  7.188146
428   1 0.0000 23.475307  6.776901 11.980244
429   1 0.0000 26.409608  8.471115 16.772342
430   1 0.0000 29.343909 10.165330 21.564439
431   1 0.0000 20.540986  8.471199  2.396049
432   1 0.0000 23.475287 10.165414  7.188146
433   1 0.0000 26.409588 11.859629 11.980244
434   1 0.0000 29.343888 13.553843 16.772342
435   1 0.0000 32.278189 15.248058 21.564439
436   1 0.0000 23.475266 13.553927  2.396049
437   1 0.0000 26.409567 15.248142  7.188146
438   1 0.0000 29.343868 16.942357 11.980244
439   1 0.0000 32.278169 18.636571 16.772342
440   1 0.0000 35.212470 20.330786 21.564439
441   1 0.0000 26.409547 18.636655  2.396049
442   1 0.0000 29.343848 20.330870  7.188146
443   1 0.0000 32.278149 22.025084 11.980244
444   1 0.0000 35.212449 23.719299 16.772342
445   1 0.0000 38.146750 25.413514 21.564439
446   1 0.0000 29.343827 23.719383  2.396049
447   1 0.0000 32.278128 25.413598  7.188146
448   1 0.0000 35.212429 27.107812 11.980244
449   1 0.0000 38.146730 28.802027 16.772342
450   1 0.0000 41.081031 30.496242 21.564439
451   1 0.0000 23.475671  3.388471  2.396049
452   1 0.0000 26.409972  5.082686  7.188146
453   1 0.0000 29.344273  6.776901 11.980244
454   1 0.0000 32.278574  8.471115 16.772342
455   1 0.0000 35.212875 10.165330 21.564439
456   1 0.0000 26.409952  8.471199  2.396049
457   1 0.0000 29.344252 10.165414  7.188146
458   1 0.0000 32.278553 11.859629 11.980244
459   1 0.0000 35.212854 13.553843 16.772342
460   1 0.0000 38.147155 15.248058 21.564439
461   1 0.0000 29.344232 13.553927  2.396049
462   1 0.0000 32.278533 15.248142  7.188146
463   1 0.0000 35.212834 16.942357 11.980244
464   1 0.0000 38.147135 18.636571 16.772342
465   1 0.0000 41.081436 20.330786 21.564439
466   1 0.0000 32.278513 18.636655  2.396049
467   1 0.0000 35.212813 20.330870  7.188146
468   1 0.0000 38.147114 22.025084 11.980244
469   1 0.0000 41.081415 23.719299 16.772342
470   1 0.0000 44.015716 25.413514 21.564439
471   1 0.0000 35.212793 23.719383  2.396049
472   1 0.0000 38.147094 25.413598  7.188146
473   1 0.0000 41.081395 27.107812 11.980244
474   1 0.0000 44.015696 28.802027 16.772342
475   1 0.0000 46.949997 30.496242 21.564439
476   1 0.0000 29.344637  3.388471  2.396049
477   1 0.0000 32.278938  5.082686  7.188146
478   1 0.0000 35.213239  6.776901 11.980244
479   1 0.0000 38.147540  8.471115 16.772342
480   1 0.0000 41.081840 10.165330 21.564439
481   1 0.0000 32.278917  8.471199  2.396049
482   1 0.0000 35.213218 10.165414  7.188146
483   1 0.0000 38.147519 11.859629 11.980244
484   1 0.0000 41.081820 13.553843 16.772342
485   1 0.0000 44.016121 15.248058 21.564439
486   1 0.0000 35.213198 13.553927  2.396049
487   1 0.0000 38.147499 15.248142  7.188146
488   1 0.0000 41.081800 16.942357 11.980244
489   1 0.0000 44.016101 18.636571 16.772342
490   1 0.0000 46.950401 20.330786 21.564439
491   1 0.0000 38.147478 18.636655  2.396049
492   1 0.0000 41.081779 20.330870  7.188146
493   1 0.0000 44.016080 22.025084 11.980244
494   1 0.0000 46.950381 23.719299 16.772342
495   1 0.0000 49.884682 25.413514 21.564439
496   1 0.0000 41.081759 23.719383  2.396049
497   1 0.0000 44.016060 25.413598  7.188146
498   1 0.0000 46.950361 27.107812 11.980244
499   1 0.0000 49.884662 28.802027 16.772342
500   1 0.0000 52.818962 30.496242 21.564439
501   2 0.0000 10.270354  5.929850  4.193098
502   2 0.0000 13.204655  7.624065  8.985196
503   2 0.0000 16.138955  9.318279 13.777294
504   2 0.0000 19.073256 11.012494 18.569391
505   2 0.0000 22.007557 12.706709 23.361489
506   2 0.0000 13.204634 11.012578  4.193098
507   2 0.0000 16.138935 12.706793  8.985196
508   2 0.0000 19.073236 14.401007 13.777294
509   2 0.0000 22.007537 16.095222 18.569391
510   2 0.0000 24.941838 17.789437 23.361489
511   2 0.0000 16.138915 16.095306  4.193098
512   2 0.0000 19.073216 17.789521  8.985196
513   2 0.0000 22.007516 19.483735 13.777294
514   2 0.0000 24.941817 21.177950 18.569391
515   2 0.0000 27.876118 22.872165 23.361489
516   2 0.0000 19.073195 21.178034  4.193098
517   2 0.0000 22.007496 22.872248  8.985196
518   2 0.0000 24.941797 24.566463 13.777294
519   2 0.0000 27.876098 26.260678 18.569391
520   2 0.0000 30.810399 27.954893 23.361489
521   2 0.0000 22.007476 26.260762  4.193098
522   2 0.0000 24.941777 27.954976  8.985196
523   2 0.0000 27.876077 29.649191 13.777294
524   2 0.0000 30.810378 31.343406 18.569391
525   2 0.0000 33.744679 33.037620 23.361489
526   2 0.0000 16.139320  5.929850  4.193098
527   2 0.0000 19.073620  7.624065  8.985196
528   2 0.0000 22.007921  9.318279 13.777294
529   2 0.0000 24.942222 11.012494 18.569391
530   2 0.0000 27.876523 12.706709 23.361489
531   2 0.0000 19.073600 11.012578  4.193098
532   2 0.0000 22.007901 12.706793  8.985196
533   2 0.0000 24.942202 14.401007 13.777294
534   2 0.0000 27.876503 16.095222 18.569391
535   2 0.0000 30.810803 17.789437 23.361489
536   2 0.0000 22.007881 16.095306  4.193098
537   2 0.0000 24.942181 17.789521  8.985196
538   2 0.0000 27.876482 19.483735 13.777294
539   2 0.0000 30.810783 21.177950 18.569391
540   2 0.0000 33.745084 22.872165 23.361489
541   2 0.0000 24.942161 21.178034  4.193098
542   2 0.0000 27.876462 22.872248  8.985196
543   2 0.0000 30.810763 24.566463 13.777294
544   2 0.0000 33.745064 26.260678 18.569391
545   2 0.0000 36.679364 27.954893 23.361489
546   2 0.0000 27.876442 26.260762  4.193098
547   2 0.0000 30.810742 27.954976  8.985196
548   2 0.0000 33.745043 29.649191 13.777294
549   2 0.0000 36.679344 31.343406 18.569391
550   2 0.0000 39.613645 33.037620 23.361489
551   2 0.0000 22.008285  5.929850  4.193098
552   2 0.0000 24.942586  7.624065  8.985196
553   2 0.0000 27.876887  9.318279 13.777294
554   2 0.0000 30.811188 11.012494 18.569391
555   2 0.0000 33.745489 12.706709 23.361489
556   2 0.0000 24.942566 11.012578  4.193098
557   2 0.0000 27.876867 12.706793  8.985196
558   2 0.0000 30.811168 14.401007 13.777294
559   2 0.0000 33.745468 16.095222 18.569391
560   2 0.0000 36.679769 17.789437 23.361489
561   2 0.0000 27.876846 16.095306  4.193098
562   2 0.0000 30.811147 17.789521  8.985196
563   2 0.0000 33.745448 19.483735 13.777294
564   2 0.0000 36.679749 21.177950 18.569391
565   2 0.0000 39.614050 22.872165 23.361489
566   2 0.0000 30.811127 21.178034  4.193098
567   2 0.0000 33.745428 22.872248  8.985196
568   2 0.0000 36.679729 24.566463 13.777294
569   2 0.0000 39.614029 26.260678 18.569391
570   2 0.0000 42.548330 27.954893 23.361489
571   2 0.0000 33.745407 26.260762  4.193098
572   2 0.0000 36.679708 27.954976  8.985196
573   2 0.0000 39.614009 29.649191 13.777294
574   2 0.0000 42.548310 31.343406 18.569391
575   2 0.0000 45.482611 33.037620 23.361489
576   2 0.0000 27.877251  5.929850  4.193098
577   2 0.0000 30.811552  7.624065  8.985196
578   2 0.0000 33.745853  9.318279 13.777294
579   2 0.0000 36.680154 11.012494 18.569391
580   2 0.0000 39.614455 12.706709 23.361489
581   2 0.0000 30.811532 11.012578  4.193098
582   2 0.0000 33.745833 12.706793  8.985196
583   2 0.0000 36.680133 14.401007 13.777294
584   2 0.0000 39.614434 16.095222 18.569391
585   2 0.0000 42.548735 17.789437 23.361489
586   2 0.0000 33.745812 16.095306  4.193098
587   2 0.0000 36.680113 17.789521  8.985196
588   2 0.0000 39.614414 19.483735 13.777294
589   2 0.0000 42.548715 21.177950 18.569391
590   2 0.0000 45.483016 22.872165 23.361489
591   2 0.0000 36.680093 21.178034  4.193098
592   2 0.0000 39.614394 22.872248  8.985196
593   2 0.0000 42.548694 24.566463 13.777294
594   2 0.0000 45.482995 26.260678 18.569391
595   2 0.0000 48.417296 27.954893 23.361489
596   2 0.0000 39.614373 26.260762  4.193098
597   2 0.0000 42.548674 27.954976  8.985196
598   2 0.0000 45.482975 29.649191 13.777294
599   2 0.0000 48.417276 31.343406 18.569391
600   2 0.0000 51.351577 33.037620 23.361489
601   2 0.0000 33.746217  5.929850  4.193098
602   2 0.0000 36.680518  7.624065  8.985196
603   2 0.0000 39.614819  9.318279 13.777294
604   2 0.0000 42.549120 11.012494 18.569391
605   2 0.0000 45.483421 12.706709 23.361489
606   2 0.0000 36.680498 11.012578  4.193098
607   2 0.0000 39.614798 12.706793  8.985196
608   2 0.0000 42.549099 14.401007 13.777294
609   2 0.0000 45.483400 16.095222 18.569391
610   2 0.0000 48.417701 17.789437 23.361489
611   2 0.0000 39.614778 16.095306  4.193098
612   2 0.0000 42.549079 17.789521  8.985196
613   2 0.0000 45.483380 19.483735 13.777294
614   2 0.0000 48.417681 21.177950 18.569391
615   2 0.0000 51.351982 22.872165 23.361489
616   2 0.0000 42.549059 21.178034  4.193098
617   2 0.0000 45.483359 22.872248  8.985196
618   2 0.0000 48.417660 24.566463 13.777294
619   2 0.0000 51.351961 26.260678 18.569391
620   2 0.0000 54.286262 27.954893 23.361489
621   2 0.0000 45.483339 26.260762  4.193098
622   2 0.0000 48.417640 27.954976  8.985196
623   2 0.0000 51.351941 29.649191 13.777294
624   2 0.0000 54.286242 31.343406 18.569391
625   2 0.0000 57.220543 33.037620 23.361489
626   2 0.0000  1.467194  0.847093  0.598999
627   2 0.0000  4.401494  2.541307  5.391097
628   2 0.0000  7.335795  4.235522 10.183194
629   2 0.0000 10.270096  5.929737 14.975292
630   2 0.0000 13.204397  7.623951 19.767390
631   2 0.0000  4.401474  5.929820  0.598999
632   2 0.0000  7.335775  7.624035  5.391097
633   2 0.0000 10.270076  9.318250 10.183194
634   2 0.0000 13.204377 11.012465 14.975292
635   2 0.0000 16.138677 12.706679 19.767390
636   2 0.0000  7.335755 11.012548  0.598999
637   2 0.0000 10.270055 12.706763  5.391097
638   2 0.0000 13.204356 14.400978 10.183194
639   2 0.0000 16.138657 16.095193 14.975292
640   2 0.0000 19.072958 17.789407 19.767390
641   2 0.0000 10.270035 16.095276  0.598999
642   2 0.0000 13.204336 17.789491  5.391097
643   2 0.0000 16.138637 19.483706 10.183194
644   2 0.0000 19.072938 21.177920 14.975292
645   2 0.0000 22.007238 22.872135 19.767390
646   2 0.0000 13.204316 21.178004  0.598999
647   2 0.0000 16.138616 22.872219  5.391097
648   2 0.0000 19.072917 24.566434 10.183194
649   2 0.0000 22.007218 26.260648 14.975292
650   2 0.0000 24.941519 27.954863 19.767390
651   2 0.0000  7.336159  0.847093  0.598999
652   2 0.0000 10.270460  2.541307  5.391097
653   2 0.0000 13.204761  4.235522 10.183194
654   2 0.0000 16.139062  5.929737 14.975292
655   2 0.0000 19.073363  7.623951 19.767390
656   2 0.0000 10.270440  5.929820  0.598999
657   2 0.0000 13.204741  7.624035  5.391097
658   2 0.0000 16.139042  9.318250 10.183194
659   2 0.0000 19.073342 11.012465 14.975292
660   2 0.0000 22.007643 12.706679 19.767390
661   2 0.0000 13.204720 11.012548  0.598999
662   2 0.0000 16.139021 12.706763  5.391097
663   2 0.0000 19.073322 14.400978 10.183194
664   2 0.0000 22.007623 16.095193 14.975292
665   2 0.0000 24.941924 17.789407 19.767390
666   2 0.0000 16.139001 16.095276  0.598999
667   2 0.0000 19.073302 17.789491  5.391097
668   2 0.0000 22.007603 19.483706 10.183194
669   2 0.0000 24.941903 21.177920 14.975292
670   2 0.0000 27.876204 22.872135 19.767390
671   2 0.0000 19.073281 21.178004  0.598999
672   2 0.0000 22.007582 22.872219  5.391097
673   2 0.0000 24.941883 24.566434 10.183194
674   2 0.0000 27.876184 26.260648 14.975292
675   2 0.0000 30.810485 27.954863 19.767390
676   2 0.0000 13.205125  0.847093  0.598999
677   2 0.0000 16.139426  2.541307  5.391097
678   2 0.0000 19.073727  4.235522 10.183194
679   2 0.0000 22.008028  5.929737 14.975292
680   2 0.0000 24.942329  7.623951 19.767390
681   2 0.0000 16.139406  5.929820  0.598999
682   2 0.0000 19.073707  7.624035  5.391097
683   2 0.0000 22.008007  9.318250 10.183194
684   2 0.0000 24.942308 11.012465 14.975292
685   2 0.0000 27.876609 12.706679 19.767390
686   2 0.0000 19.073686 11.012548  0.598999
687   2 0.0000 22.007987 12.706763  5.391097
688   2 0.0000 24.942288 14.400978 10.183194
689   2 0.0000 27.876589 16.095193 14.975292
690   2 0.0000 30.810890 17.789407 19.767390
691   2 0.0000 22.007967 16.095276  0.598999
692   2 0.0000 24.942268 17.789491  5.391097
693   2 0.0000 27.876568 19.483706 10.183194
694   2 0.0000 30.810869 21.177920 14.975292
695   2 0.0000 33.745170 22.872135 19.767390
696   2 0.0000 24.942247 21.178004  0.598999
697   2 0.0000 27.876548 22.872219  5.391097
698   2 0.0000 30.810849 24.566434 10.183194
699   2 0.0000 33.745150 26.260648 14.975292
700   2 0.0000 36.679451 27.954863 19.767390
701   2 0.0000 19.074091  0.847093  0.598999
702   2 0.0000 22.008392  2.541307  5.391097
703   2 0.0000 24.942693  4.235522 10.183194
704   2 0.0000 27.876994  5.929737 14.975292
705   2 0.0000 30.811294  7.623951 19.767390
706   2 0.0000 22.008372  5.929820  0.598999
707   2 0.0000 24.942672  7.624035  5.391097
708   2 0.0000 27.876973  9.318250 10.183194
709   2 0.0000 30.811274 11.012465 14.975292
710   2 0.0000 33.745575 12.706679 19.767390
711   2 0.0000 24.942652 11.012548  0.598999
712   2 0.0000 27.876953 12.706763  5.391097
713   2 0.0000 30.811254 14.400978 10.183194
714   2 0.0000 33.745555 16.095193 14.975292
715   2 0.0000 36.679855 17.789407 19.767390
716   2 0.0000 27.876933 16.095276  0.598999
717   2 0.0000 30.811233 17.789491  5.391097
718   2 0.0000 33.745534 19.483706 10.183194
719   2 0.0000 36.679835 21.177920 14.975292
720   2 0.0000 39.614136 22.872135 19.767390
721   2 0.0000 30.811213 21.178004  0.598999
722   2 0.0000 33.745514 22.872219  5.391097
723   2 0.0000 36.679815 24.566434 10.183194
724   2 0.0000 39.614116 26.260648 14.975292
725   2 0.0000 42.548417 27.954863 19.767390
726   2 0.0000 24.943057  0.847093  0.598999
727   2 0.0000 27.877358  2.541307  5.391097
728   2 0.0000 30.811659  4.235522 10.183194
729   2 0.0000 33.745959  5.929737 14.975292
730   2 0.0000 36.680260  7.623951 19.767390
731   2 0.0000 27.877337  5.929820  0.598999
732   2 0.0000 30.811638  7.624035  5.391097
733   2 0.0000 33.745939  9.318250 10.183194
734   2 0.0000 36.680240 11.012465 14.975292
735   2 0.0000 39.614541 12.706679 19.767390
736   2 0.0000 30.811618 11.012548  0.598999
737   2 0.0000 33.745919 12.706763  5.391097
738   2 0.0000 36.680220 14.400978 10.183194
739   2 0.0000 39.614520 16.095193 14.975292
740   2 0.0000 42.548821 17.789407 19.767390
741   2 0.0000 33.745898 16.095276  0.598999
742   2 0.0000 36.680199 17.789491  5.391097
743   2 0.0000 39.614500 19.483706 10.183194
744   2 0.0000 42.548801 21.177920 14.975292
745   2 0.0000 45.483102 22.872135 19.767390
746   2 0.0000 36.680179 21.178004  0.598999
747   2 0.0000 39.614480 22.872219  5.391097
748   2 0.0000 42.548781 24.566434 10.183194
749   2 0.0000 45.483081 26.260648 14.975292
750   2 0.0000 48.417382 27.954863 19.767390
751   3 0.0000  8.651733  4.995369  3.532288
752   3 0.0000 11.586034  6.689584  8.324386
753   3 0.0000 14.520335  8.383798 13.116483
754   3 0.0000 17.454635 10.078013 17.908581
755   3 0.0000 20.388936 11.772228 22.700679
756   3 0.0000 11.586013 10.078097  3.532288
757   3 0.0000 14.520314 11.772312  8.324386
758   3 0.0000 17.454615 13.466526 13.116483
759   3 0.0000 20.388916 15.160741 17.908581
760   3 0.0000 23.323217 16.854956 22.700679
761   3 0.0000 14.520294 15.160825  3.532288
762   3 0.0000 17.454595 16.855039  8.324386
763   3 0.0000 20.388896 18.549254 13.116483
764   3 0.0000 23.323196 20.243469 17.908581
765   3 0.0000 26.257497 21.937684 22.700679
766   3 0.0000 17.454574 20.243553  3.532288
767   3 0.0000 20.388875 21.937767  8.324386
768   3 0.0000 23.323176 23.631982 13.116483
769   3 0.0000 26.257477 25.326197 17.908581
770   3 0.0000 29.191778 27.020412 22.700679
771   3 0.0000 20.388855 25.326281  3.532288
772   3 0.0000 23.323156 27.020495  8.324386
773   3 0.0000 26.257457 28.714710 13.116483
774   3 0.0000 29.191757 30.408925 17.908581
775   3 0.0000 32.126058 32.103139 22.700679
776   3 0.0000 14.520699  4.995369  3.532288
777   3 0.0000 17.454999  6.689584  8.324386
778   3 0.0000 20.389300  8.383798 13.116483
779   3 0.0000 23.323601 10.078013 17.908581
780   3 0.0000 26.257902 11.772228 22.700679
781   3 0.0000 17.454979 10.078097  3.532288
782   3 0.0000 20.389280 11.772312  8.324386
783   3 0.0000 23.323581 13.466526 13.116483
784   3 0.0000 26.257882 15.160741 17.908581
785   3 0.0000 29.192183 16.854956 22.700679
786   3 0.0000 20.389260 15.160825  3.532288
787   3 0.0000 23.323560 16.855039  8.324386
788   3 0.0000 26.257861 18.549254 13.116483
789   3 0.0000 29.192162 20.243469 17.908581
790   3 0.0000 32.126463 21.937684 22.700679
791   3 0.0000 23.323540 20.243553  3.532288
792   3 0.0000 26.257841 21.937767  8.324386
793   3 0.0000 29.192142 23.631982 13.116483
794   3 0.0000 32.126443 25.326197 17.908581
795   3 0.0000 35.060744 27.020412 22.700679
796   3 0.0000 26.257821 25.326281  3.532288
797   3 0.0000 29.192121 27.020495  8.324386
798   3 0.0000 32.126422 28.714710 13.116483
799   3 0.0000 35.060723 30.408925 17.908581
800   3 0.0000 37.995024 32.103139 22.700679
801   3 0.0000 20.389664  4.995369  3.532288
802   3 0.0000 23.323965  6.689584  8.324386
803   3 0.0000 26.258266  8.383798 13.116483
804   3 0.0000 29.192567 10.078013 17.908581
805   3 0.0000 32.126868 11.772228 22.700679
806   3 0.0000 23.323945 10.078097  3.532288
807   3 0.0000 26.258246 11.772312  8.324386
808   3 0.0000 29.192547 13.466526 13.116483
809   3 0.0000 32.126848 15.160741 17.908581
810   3 0.0000 35.061148 16.854956 22.700679
811   3 0.0000 26.258225 15.160825  3.532288
812   3 0.0000 29.192526 16.855039  8.324386
813   3 0.0000 32.126827 18.549254 13.116483
814   3 0.0000 35.061128 20.243469 17.908581
815   3 0.0000 37.995429 21.937684 22.700679
816   3 0.0000 29.192506 20.243553  3.532288
817   3 0.0000 32.126807 21.937767  8.324386
818   3 0.0000 35.061108 23.631982 13.116483
819   3 0.0000 37.995409 25.326197 17.908581
820   3 0.0000 40.929709 27.020412 22.700679
821   3 0.0000 32.126786 25.326281  3.532288
822   3 0.0000 35.061087 27.020495  8.324386
823   3 0.0000 37.995388 28.714710 13.116483
824   3 0.0000 40.929689 30.408925 17.908581
825   3 0.0000 43.863990 32.103139 22.700679
826   3 0.0000 26.258630  4.995369  3.532288
827   3 0.0000 29.192931  6.689584  8.324386
828   3 0.0000 32.127232  8.383798 13.116483
829   3 0.0000 35.061533 10.078013 17.908581
830   3 0.0000 37.995834 11.772228 22.700679
831   3 0.0000 29.192911 10.078097  3.532288
832   3 0.0000 32.127212 11.772312  8.324386
833   3 0.0000 35.061513 13.466526 13.116483
834   3 0.0000 37.995813 15.160741 17.908581
835   3 0.0000 40.930114 16.854956 22.700679
836   3 0.0000 32.127191 15.160825  3.532288
837   3 0.0000 35.061492 16.855039  8.324386
838   3 0.0000 37.995793 18.549254 13.116483
839   3 0.0000 40.930094 20.243469 17.908581
840   3 0.0000 43.864395 21.937684 22.700679
841   3 0.0000 35.061472 20.243553  3.532288
842   3 0.0000 37.995773 21.937767  8.324386
843   3 0.0000 40.930074 23.631982 13.116483
844   3 0.0000 43.864374 25.326197 17.908581
845   3 0.0000 46.798675 27.020412 22.700679
846   3 0.0000 37.995752 25.326281  3.532288
847   3 0.0000 40.930053 27.020495  8.324386
848   3 0.0000 43.864354 28.714710 13.116483
849   3 0.0000 46.798655 30.408925 17.908581
850   3 0.0000 49.732956 32.103139 22.700679
851   3 0.0000 32.127596  4.995369  3.532288
852   3 0.0000 35.061897  6.689584  8.324386
853   3 0.0000 37.996198  8.383798 13.116483
854   3 0.0000 40.930499 10.078013 17.908581
855   3 0.0000 43.864800 11.772228 22.700679
856   3 0.0000 35.061877 10.078097  3.532288
857   3 0.0000 37.996178 11.772312  8.324386
858   3 0.0000 40.930478 13.466526 13.116483
859   3 0.0000 43.864779 15.160741 17.908581
860   3 0.0000 46.799080 16.854956 22.700679
861   3 0.0000 37.996157 15.160825  3.532288
862   3 0.0000 40.930458 16.855039  8.324386
863   3 0.0000 43.864759 18.549254 13.116483
864   3 0.0000 46.799060 20.243469 17.908581
865   3 0.0000 49.733361 21.937684 22.700679
866   3 0.0000 40.930438 20.243553  3.532288
867   3 0.0000 43.864739 21.937767  8.324386
868   3 0.0000 46.799039 23.631982 13.116483
869   3 0.0000 49.733340 25.326197 17.908581
870   3 0.0000 52.667641 27.020412 22.700679
871   3 0.0000 43.864718 25.326281  3.532288
872   3 0.0000 46.799019 27.020495  8.324386
873   3 0.0000 49.733320 28.714710 13.116483
874   3 0.0000 52.667621 30.408925 17.908581
875   3 0.0000 55.601922 32.103139 22.700679
876   3 0.0000  4.401631  2.541304  3.408633
877   3 0.0000  7.335932  4.235519  8.200730
878   3 0.0000 10.270232  5.929733 12.992828
879   3 0.0000 13.204533  7.623948 17.784926
880   3 0.0000 16.138834  9.318163 22.577023
881   3 0.0000  7.335911  7.624032  3.408633
882   3 0.0000 10.270212  9.318247  8.200730
883   3 0.0000 13.204513 11.012461 12.992828
884   3 0.0000 16.138814 12.706676 17.784926
885   3 0.0000 19.073115 14.400891 22.577023
886   3 0.0000 10.270192 12.706760  3.408633
887   3 0.0000 13.204493 14.400974  8.200730
888   3 0.0000 16.138793 16.095189 12.992828
889   3 0.0000 19.073094 17.789404 17.784926
890   3 0.0000 22.007395 19.483619 22.577023
891   3 0.0000 13.204472 17.789488  3.408633
892   3 0.0000 16.138773 19.483702  8.200730
893   3 0.0000 19.073074 21.177917 12.992828
894   3 0.0000 22.007375 22.872132 17.784926
895   3 0.0000 24.941676 24.566347 22.577023
896   3 0.0000 16.138753 22.872216  3.408633
897   3 0.0000 19.073054 24.566430  8.200730
898   3 0.0000 22.007354 26.260645 12.992828
899   3 0.0000 24.941655 27.954860 17.784926
900   3 0.0000 27.875956 29.649074 22.577023
901   3 0.0000 10.270596  2.541304  3.408633
902   3 0.0000 13.204897  4.235519  8.200730
903   3 0.0000 16.139198  5.929733 12.992828
904   3 0.0000 19.073499  7.623948 17.784926
905   3 0.0000 22.007800  9.318163 22.577023
906   3 0.0000 13.204877  7.624032  3.408633
907   3 0.0000 16.139178  9.318247  8.200730
908   3 0.0000 19.073479 11.012461 12.992828
909   3 0.0000 22.007780 12.706676 17.784926
910   3 0.0000 24.942080 14.400891 22.577023
911   3 0.0000 16.139157 12.706760  3.408633
912   3 0.0000 19.073458 14.400974  8.200730
913   3 0.0000 22.007759 16.095189 12.992828
914   3 0.0000 24.942060 17.789404 17.784926
915   3 0.0000 27.876361 19.483619 22.577023
916   3 0.0000 19.073438 17.789488  3.408633
917   3 0.0000 22.007739 19.483702  8.200730
918   3 0.0000 24.942040 21.177917 12.992828
919   3 0.0000 27.876341 22.872132 17.784926
920   3 0.0000 30.810641 24.566347 22.577023
921   3 0.0000 22.007718 22.872216  3.408633
922   3 0.0000 24.942019 24.566430  8.200730
923   3 0.0000 27.876320 26.260645 12.992828
924   3 0.0000 30.810621 27.954860 17.784926
925   3 0.0000 33.744922 29.649074 22.577023
926   3 0.0000 16.139562  2.541304  3.408633
927   3 0.0000 19.073863  4.235519  8.200730
928   3 0.0000 22.008164  5.929733 12.992828
929   3 0.0000 24.942465  7.623948 17.784926
930   3 0.0000 27.876766  9.318163 22.577023
931   3 0.0000 19.073843  7.624032  3.408633
932   3 0.0000 22.008144  9.318247  8.200730
933   3 0.0000 24.942445 11.012461 12.992828
934   3 0.0000 27.876745 12.706676 17.784926
935   3 0.0000 30.811046 14.400891 22.577023
936   3 0.0000 22.008123 12.706760  3.408633
937   3 0.0000 24.942424 14.400974  8.200730
938   3 0.0000 27.876725 16.095189 12.992828
939   3 0.0000 30.811026 17.789404 17.784926
940   3 0.0000 33.745327 19.483619 22.577023
941   3 0.0000 24.942404 17.789488  3.408633
942   3 0.0000 27.876705 19.483702  8.200730
943   3 0.0000 30.811006 21.177917 12.992828
944   3 0.0000 33.745306 22.872132 17.784926
945   3 0.0000 36.679607 24.566347 22.577023
946   3 0.0000 27.876684 22.872216  3.408633
947   3 0.0000 30.810985 24.566430  8.200730
948   3 0.0000 33.745286 26.260645 12.992828
949   3 0.0000 36.679587 27.954860 17.784926
950   3 0.0000 39.613888 29.649074 22.577023
951   3 0.0000 22.008528  2.541304  3.408633
952   3 0.0000 24.942829  4.235519  8.200730
953   3 0.0000 27.877130  5.929733 12.992828
954   3 0.0000 30.811431  7.623948 17.784926
955   3 0.0000 33.745732  9.318163 22.577023
956   3 0.0000 24.942809  7.624032  3.408633
957   3 0.0000 27.877110  9.318247  8.200730
958   3 0.0000 30.811410 11.012461 12.992828
959   3 0.0000 33.745711 12.706676 17.784926
960   3 0.0000 36.680012 14.400891 22.577023
961   3 0.0000 27.877089 12.706760  3.408633
962   3 0.0000 30.811390 14.400974  8.200730
963   3 0.0000 33.745691 16.095189 12.992828
964   3 0.0000 36.679992 17.789404 17.784926
965   3 0.0000 39.614293 19.483619 22.577023
966   3 0.0000 30.811370 17.789488  3.408633
967   3 0.0000 33.745671 19.483702  8.200730
968   3 0.0000 36.679971 21.177917 12.992828
969   3 0.0000 39.614272 22.872132 17.784926
970   3 0.0000 42.548573 24.566347 22.577023
971   3 0.0000 33.745650 22.872216  3.408633
972   3 0.0000 36.679951 24.566430  8.200730
973   3 0.0000 39.614252 26.260645 12.992828
974   3 0.0000 42.548553 27.954860 17.784926
975   3 0.0000 45.482854 29.649074 22.577023
976   3 0.0000 27.877494  2.541304  3.408633
977   3 0.0000 30.811795  4.235519  8.200730
978   3 0.0000 33.746096  5.929733 12.992828
979   3 0.0000 36.680397  7.623948 17.784926
980   3 0.0000 39.614697  9.318163 22.577023
981   3 0.0000 30.811775  7.624032  3.408633
982   3 0.0000 33.746075  9.318247  8.200730
983   3 0.0000 36.680376 11.012461 12.992828
984   3 0.0000 39.614677 12.706676 17.784926
985   3 0.0000 42.548978 14.400891 22.577023
986   3 0.0000 33.746055 12.706760  3.408633
987   3 0.0000 36.680356 14.400974  8.200730
988   3 0.0000 39.614657 16.095189 12.992828
989   3 0.0000 42.548958 17.789404 17.784926
990   3 0.0000 45.483258 19.483619 22.577023
991   3 0.0000 36.680336 17.789488  3.408633
992   3 0.0000 39.614636 19.483702  8.200730
993   3 0.0000 42.548937 21.177917 12.992828
994   3 0.0000 45.483238 22.872132 17.784926
995   3 0.0000 48.417539 24.566347 22.577023
996   3 0.0000 39.614616 22.872216  3.408633
997   3 0.0000 42.548917 24.566430  8.200730
998   3 0.0000 45.483218 26.260645 12.992828
999   3 0.0000 48.417519 27.954860 17.784926
1000  3 0.0000 51.351819 29.649074 22.577023
1001  3 0.0000  4.401618  4.060773  1.259821
1002  3 0.0000  7.335919  5.754988  6.051918
1003  3 0.0000 10.270220  7.449203 10.844016
1004  3 0.0000 13.204521  9.143417 15.636114
1005  3 0.0000 16.138822 10.837632 20.428211
1006  3 0.0000  7.335899  9.143501  1.259821
1007  3 0.0000 10.270200 10.837716  6.051918
1008  3 0.0000 13.204500 12.531930 10.844016
1009  3 0.0000 16.138801 14.226145 15.636114
1010  3 0.0000 19.073102 15.920360 20.428211
1011  3 0.0000 10.270179 14.226229  1.259821
1012  3 0.0000 13.204480 15.920444  6.051918
1013  3 0.0000 16.138781 17.614658 10.844016
1014  3 0.0000 19.073082 19.308873 15.636114
1015  3 0.0000 22.007383 21.003088 20.428211
1016  3 0.0000 13.204460 19.308957  1.259821
1017  3 0.0000 16.138761 21.003172  6.051918
1018  3 0.0000 19.073061 22.697386 10.844016
1019  3 0.0000 22.007362 24.391601 15.636114
1020  3 0.0000 24.941663 26.085816 20.428211
1021  3 0.0000 16.138740 24.391685  1.259821
1022  3 0.0000 19.073041 26.085899  6.051918
1023  3 0.0000 22.007342 27.780114 10.844016
1024  3 0.0000 24.941643 29.474329 15.636114
1025  3 0.0000 27.875944 31.168544 20.428211
1026  3 0.0000 10.270584  4.060773  1.259821
1027  3 0.0000 13.204885  5.754988  6.051918
1028  3 0.0000 16.139186  7.449203 10.844016
1029  3 0.0000 19.073487  9.143417 15.636114
1030  3 0.0000 22.007787 10.837632 20.428211
1031  3 0.0000 13.204864  9.143501  1.259821
1032  3 0.0000 16.139165 10.837716  6.051918
1033  3 0.0000 19.073466 12.531930 10.844016
1034  3 0.0000 22.007767 14.226145 15.636114
1035  3 0.0000 24.942068 15.920360 20.428211
1036  3 0.0000 16.139145 14.226229  1.259821
1037  3 0.0000 19.073446 15.920444  6.051918
1038  3 0.0000 22.007747 17.614658 10.844016
1039  3 0.0000 24.942048 19.308873 15.636114
1040  3 0.0000 27.876348 21.003088 20.428211
1041  3 0.0000 19.073425 19.308957  1.259821
1042  3 0.0000 22.007726 21.003172  6.051918
1043  3 0.0000 24.942027 22.697386 10.844016
1044  3 0.0000 27.876328 24.391601 15.636114
1045  3 0.0000 30.810629 26.085816 20.428211
1046  3 0.0000 22.007706 24.391685  1.259821
1047  3 0.0000 24.942007 26.085899  6.051918
1048  3 0.0000 27.876308 27.780114 10.844016
1049  3 0.0000 30.810609 29.474329 15.636114
1050  3 0.0000 33.744909 31.168544 20.428211
1051  3 0.0000 16.139550  4.060773  1.259821
1052  3 0.0000 19.073851  5.754988  6.051918
1053  3 0.0000 22.008152  7.449203 10.844016
1054  3 0.0000 24.942452  9.143417 15.636114
1055  3 0.0000 27.876753 10.837632 20.428211
1056  3 0.0000 19.073830  9.143501  1.259821
1057  3 0.0000 22.008131 10.837716  6.051918
1058  3 0.0000 24.942432 12.531930 10.844016
1059  3 0.0000 27.876733 14.226145 15.636114
1060  3 0.0000 30.811034 15.920360 20.428211
1061  3 0.0000 22.008111 14.226229  1.259821
1062  3 0.0000 24.942412 15.920444  6.051918
1063  3 0.0000 27.876713 17.614658 10.844016
1064  3 0.0000 30.811013 19.308873 15.636114
1065  3 0.0000 33.745314 21.003088 20.428211
1066  3 0.0000 24.942391 19.308957  1.259821
1067  3 0.0000 27.876692 21.003172  6.051918
1068  3 0.0000 30.810993 22.697386 10.844016
1069  3 0.0000 33.745294 24.391601 15.636114
1070  3 0.0000 36.679595 26.085816 20.428211
1071  3 0.0000 27.876672 24.391685  1.259821
1072  3 0.0000 30.810973 26.085899  6.051918
1073  3 0.0000 33.745274 27.780114 10.844016
1074  3 0.0000 36.679574 29.474329 15.636114
1075  3 0.0000 39.613875 31.168544 20.428211
1076  3 0.0000 22.008516  4.060773  1.259821
1077  3 0.0000 24.942817  5.754988  6.051918
1078  3 0.0000 27.877117  7.449203 10.844016
1079  3 0.0000 30.811418  9.143417 15.636114
1080  3 0.0000 33.745719 10.837632 20.428211
1081  3 0.0000 24.942796  9.143501  1.259821
1082  3 0.0000 27.877097 10.837716  6.051918
1083  3 0.0000 30.811398 12.531930 10.844016
1084  3 0.0000 33.745699 14.226145 15.636114
1085  3 0.0000 36.680000 15.920360 20.428211
1086  3 0.0000 27.877077 14.226229  1.259821
1087  3 0.0000 30.811378 15.920444  6.051918
1088  3 0.0000 33.745678 17.614658 10.844016
1089  3 0.0000 36.679979 19.308873 15.636114
1090  3 0.0000 39.614280 21.003088 20.428211
1091  3 0.0000 30.811357 19.308957  1.259821
1092  3 0.0000 33.745658 21.003172  6.051918
1093  3 0.0000 36.679959 22.697386 10.844016
1094  3 0.0000 39.614260 24.391601 15.636114
1095  3 0.0000 42.548561 26.085816 20.428211
1096  3 0.0000 33.745638 24.391685  1.259821
1097  3 0.0000 36.679939 26.085899  6.051918
1098  3 0.0000 39.614239 27.780114 10.844016
1099  3 0.0000 42.548540 29.474329 15.636114
1100  3 0.0000 45.482841 31.168544 20.428211
1101  3 0.0000 27.877481  4.060773  1.259821
1102  3 0.0000 30.811782  5.754988  6.051918
1103  3 0.0000 33.746083  7.449203 10.844016
1104  3 0.0000 36.680384  9.143417 15.636114
1105  3 0.0000 39.614685 10.837632 20.428211
1106  3 0.0000 30.811762  9.143501  1.259821
1107  3 0.0000 33.746063 10.837716  6.051918
1108  3 0.0000 36.680364 12.531930 10.844016
1109  3 0.0000 39.614665 14.226145 15.636114
1110  3 0.0000 42.548965 15.920360 20.428211
1111  3 0.0000 33.746042 14.226229  1.259821
1112  3 0.0000 36.680343 15.920444  6.051918
1113  3 0.0000 39.614644 17.614658 10.844016
1114  3 0.0000 42.548945 19.308873 15.636114
1115  3 0.0000 45.483246 21.003088 20.428211
1116  3 0.0000 36.680323 19.308957  1.259821
1117  3 0.0000 39.614624 21.003172  6.051918
1118  3 0.0000 42.548925 22.697386 10.844016
1119  3 0.0000 45.483226 24.391601 15.636114
1120  3 0.0000 48.417526 26.085816 20.428211
1121  3 0.0000 39.614603 24.391685  1.259821
1122  3 0.0000 42.548904 26.085899  6.051918
1123  3 0.0000 45.483205 27.780114 10.844016
1124  3 0.0000 48.417506 29.474329 15.636114
1125  3 0.0000 51.351807 31.168544 20.428211
1126  3 0.0000  5.717434  1.781669  1.259881
1127  3 0.0000  8.651735  3.475884  6.051979
1128  3 0.0000 11.586036  5.170098 10.844076
1129  3 0.0000 14.520337  6.864313 15.636174
1130  3 0.0000 17.454638  8.558528 20.428271
1131  3 0.0000  8.651715  6.864397  1.259881
1132  3 0.0000 11.586016  8.558612  6.051979
1133  3 0.0000 14.520317 10.252826 10.844076
1134  3 0.0000 17.454617 11.947041 15.636174
1135  3 0.0000 20.388918 13.641256 20.428271
1136  3 0.0000 11.585995 11.947125  1.259881
1137  3 0.0000 14.520296 13.641339  6.051979
1138  3 0.0000 17.454597 15.335554 10.844076
1139  3 0.0000 20.388898 17.029769 15.636174
1140  3 0.0000 23.323199 18.723984 20.428271
1141  3 0.0000 14.520276 17.029853  1.259881
1142  3 0.0000 17.454577 18.724067  6.051979
1143  3 0.0000 20.388878 20.418282 10.844076
1144  3 0.0000 23.323178 22.112497 15.636174
1145  3 0.0000 26.257479 23.806712 20.428271
1146  3 0.0000 17.454556 22.112580  1.259881
1147  3 0.0000 20.388857 23.806795  6.051979
1148  3 0.0000 23.323158 25.501010 10.844076
1149  3 0.0000 26.257459 27.195225 15.636174
1150  3 0.0000 29.191760 28.889439 20.428271
1151  3 0.0000 11.586400  1.781669  1.259881
1152  3 0.0000 14.520701  3.475884  6.051979
1153  3 0.0000 17.455002  5.170098 10.844076
1154  3 0.0000 20.389303  6.864313 15.636174
1155  3 0.0000 23.323604  8.558528 20.428271
1156  3 0.0000 14.520681  6.864397  1.259881
1157  3 0.0000 17.454982  8.558612  6.051979
1158  3 0.0000 20.389282 10.252826 10.844076
1159  3 0.0000 23.323583 11.947041 15.636174
1160  3 0.0000 26.257884 13.641256 20.428271
1161  3 0.0000 17.454961 11.947125  1.259881
1162  3 0.0000 20.389262 13.641339  6.051979
1163  3 0.0000 23.323563 15.335554 10.844076
1164  3 0.0000 26.257864 17.029769 15.636174
1165  3 0.0000 29.192165 18.723984 20.428271
1166  3 0.0000 20.389242 17.029853  1.259881
1167  3 0.0000 23.323543 18.724067  6.051979
1168  3 0.0000 26.257843 20.418282 10.844076
1169  3 0.0000 29.192144 22.112497 15.636174
1170  3 0.0000 32.126445 23.806712 20.428271
1171  3 0.0000 23.323522 22.112580  1.259881
1172  3 0.0000 26.257823 23.806795  6.051979
1173  3 0.0000 29.192124 25.501010 10.844076
1174  3 0.0000 32.126425 27.195225 15.636174
1175  3 0.0000 35.060726 28.889439 20.428271
1176  3 0.0000 17.455366  1.781669  1.259881
1177  3 0.0000 20.389667  3.475884  6.051979
1178  3 0.0000 23.323968  5.170098 10.844076
1179  3 0.0000 26.258269  6.864313 15.636174
1180  3 0.0000 29.192569  8.558528 20.428271
1181  3 0.0000 20.389647  6.864397  1.259881
1182  3 0.0000 23.323947  8.558612  6.051979
1183  3 0.0000 26.258248 10.252826 10.844076
1184  3 0.0000 29.192549 11.947041 15.636174
1185  3 0.0000 32.126850 13.641256 20.428271
1186  3 0.0000 23.323927 11.947125  1.259881
1187  3 0.0000 26.258228 13.641339  6.051979
1188  3 0.0000 29.192529 15.335554 10.844076
1189  3 0.0000 32.126830 17.029769 15.636174
1190  3 0.0000 35.061130 18.723984 20.428271
1191  3 0.0000 26.258208 17.029853  1.259881
1192  3 0.0000 29.192508 18.724067  6.051979
1193  3 0.0000 32.126809 20.418282 10.844076
1194  3 0.0000 35.061110 22.112497 15.636174
1195  3 0.0000 37.995411 23.806712 20.428271
1196  3 0.0000 29.192488 22.112580  1.259881
1197  3 0.0000 32.126789 23.806795  6.051979
1198  3 0.0000 35.061090 25.501010 10.844076
1199  3 0.0000 37.995391 27.195225 15.636174
1200  3 0.0000 40.929691 28.889439 20.428271
1201  3 0.0000 23.324332  1.781669  1.259881
1202  3 0.0000 26.258633  3.475884  6.051979
1203  3 0.0000 29.192934  5.170098 10.844076
1204  3 0.0000 32.127234  6.864313 15.636174
1205  3 0.0000 35.061535  8.558528 20.428271
1206  3 0.0000 26.258612  6.864397  1.259881
1207  3 0.0000 29.192913  8.558612  6.051979
1208  3 0.0000 32.127214 10.252826 10.844076
1209  3 0.0000 35.061515 11.947041 15.636174
1210  3 0.0000 37.995816 13.641256 20.428271
1211  3 0.0000 29.192893 11.947125  1.259881
1212  3 0.0000 32.127194 13.641339  6.051979
1213  3 0.0000 35.061495 15.335554 10.844076
1214  3 0.0000 37.995795 17.029769 15.636174
1215  3 0.0000 40.930096 18.723984 20.428271
1216  3 0.0000 32.127173 17.029853  1.259881
1217  3 0.0000 35.061474 18.724067  6.051979
1218  3 0.0000 37.995775 20.418282 10.844076
1219  3 0.0000 40.930076 22.112497 15.636174
1220  3 0.0000 43.864377 23.806712 20.428271
1221  3 0.0000 35.061454 22.112580  1.259881
1222  3 0.0000 37.995755 23.806795  6.051979
1223  3 0.0000 40.930056 25.501010 10.844076
1224  3 0.0000 43.864356 27.195225 15.636174
1225  3 0.0000 46.798657 28.889439 20.428271
1226  3 0.0000 29.193298  1.781669  1.259881
1227  3 0.0000 32.127599  3.475884  6.051979
1228  3 0.0000 35.061899  5.170098 10.844076
1229  3 0.0000 37.996200  6.864313 15.636174
1230  3 0.0000 40.930501  8.558528 20.428271
1231  3 0.0000 32.127578  6.864397  1.259881
1232  3 0.0000 35.061879  8.558612  6.051979
1233  3 0.0000 37.996180 10.252826 10.844076
1234  3 0.0000 40.930481 11.947041 15.636174
1235  3 0.0000 43.864782 13.641256 20.428271
1236  3 0.0000 35.061859 11.947125  1.259881
1237  3 0.0000 37.996160 13.641339  6.051979
1238  3 0.0000 40.930460 15.335554 10.844076
1239  3 0.0000 43.864761 17.029769 15.636174
1240  3 0.0000 46.799062 18.723984 20.428271
1241  3 0.0000 37.996139 17.029853  1.259881
1242  3 0.0000 40.930440 18.724067  6.051979
1243  3 0.0000 43.864741 20.418282 10.844076
1244  3 0.0000 46.799042 22.112497 15.636174
1245  3 0.0000 49.733343 23.806712 20.428271
1246  3 0.0000 40.930420 22.112580  1.259881
1247  3 0.0000 43.864721 23.806795  6.051979
1248  3 0.0000 46.799021 25.501010 10.844076
1249  3 0.0000 49.733322 27.195225 15.636174
1250  3 0.0000 52.667623 28.889439 20.428271
1251  3 0.0000  7.335929  2.716169  3.532277
1252  3 0.0000 10.270230  4.410384  8.324375
1253  3 0.0000 13.204531  6.104599 13.116472
1254  3 0.0000 16.138832  7.798814 17.908570
1255  3 0.0000 19.073133  9.493028 22.700668
1256  3 0.0000 10.270210  7.798897  3.532277
1257  3 0.0000 13.204510  9.493112  8.324375
1258  3 0.0000 16.138811 11.187327 13.116472
1259  3 0.0000 19.073112 12.881542 17.908570
1260  3 0.0000 22.007413 14.575756 22.700668
1261  3 0.0000 13.204490 12.881625  3.532277
1262  3 0.0000 16.138791 14.575840  8.324375
1263  3 0.0000 19.073092 16.270055 13.116472
1264  3 0.0000 22.007393 17.964269 17.908570
1265  3 0.0000 24.941694 19.658484 22.700668
1266  3 0.0000 16.138771 17.964353  3.532277
1267  3 0.0000 19.073071 19.658568  8.324375
1268  3 0.0000 22.007372 21.352783 13.116472
1269  3 0.0000 24.941673 23.046997 17.908570
1270  3 0.0000 27.875974 24.741212 22.700668
1271  3 0.0000 19.073051 23.047081  3.532277
1272  3 0.0000 22.007352 24.741296  8.324375
1273  3 0.0000 24.941653 26.435510 13.116472
1274  3 0.0000 27.875954 28.129725 17.908570
1275  3 0.0000 30.810255 29.823940 22.700668
1276  3 0.0000 13.204895  2.716169  3.532277
1277  3 0.0000 16.139196  4.410384  8.324375
1278  3 0.0000 19.073497  6.104599 13.116472
1279  3 0.0000 22.007798  7.798814 17.908570
1280  3 0.0000 24.942098  9.493028 22.700668
1281  3 0.0000 16.139175  7.798897  3.532277
1282  3 0.0000 19.073476  9.493112  8.324375
1283  3 0.0000 22.007777 11.187327 13.116472
1284  3 0.0000 24.942078 12.881542 17.908570
1285  3 0.0000 27.876379 14.575756 22.700668
1286  3 0.0000 19.073456 12.881625  3.532277
1287  3 0.0000 22.007757 14.575840  8.324375
1288  3 0.0000 24.942058 16.270055 13.116472
1289  3 0.0000 27.876359 17.964269 17.908570
1290  3 0.0000 30.810659 19.658484 22.700668
1291  3 0.0000 22.007736 17.964353  3.532277
1292  3 0.0000 24.942037 19.658568  8.324375
1293  3 0.0000 27.876338 21.352783 13.116472
1294  3 0.0000 30.810639 23.046997 17.908570
1295  3 0.0000 33.744940 24.741212 22.700668
1296  3 0.0000 24.942017 23.047081  3.532277
1297  3 0.0000 27.876318 24.741296  8.324375
1298  3 0.0000 30.810619 26.435510 13.116472
1299  3 0.0000 33.744920 28.129725 17.908570
1300  3 0.0000 36.679220 29.823940 22.700668
1301  3 0.0000 19.073861  2.716169  3.532277
1302  3 0.0000 22.008162  4.410384  8.324375
1303  3 0.0000 24.942462  6.104599 13.116472
1304  3 0.0000 27.876763  7.798814 17.908570
1305  3 0.0000 30.811064  9.493028 22.700668
1306  3 0.0000 22.008141  7.798897  3.532277
1307  3 0.0000 24.942442  9.493112  8.324375
1308  3 0.0000 27.876743 11.187327 13.116472
1309  3 0.0000 30.811044 12.881542 17.908570
1310  3 0.0000 33.745345 14.575756 22.700668
1311  3 0.0000 24.942422 12.881625  3.532277
1312  3 0.0000 27.876723 14.575840  8.324375
1313  3 0.0000 30.811023 16.270055 13.116472
1314  3 0.0000 33.745324 17.964269 17.908570
1315  3 0.0000 36.679625 19.658484 22.700668
1316  3 0.0000 27.876702 17.964353  3.532277
1317  3 0.0000 30.811003 19.658568  8.324375
1318  3 0.0000 33.745304 21.352783 13.116472
1319  3 0.0000 36.679605 23.046997 17.908570
1320  3 0.0000 39.613906 24.741212 22.700668
1321  3 0.0000 30.810983 23.047081  3.532277
1322  3 0.0000 33.745284 24.741296  8.324375
1323  3 0.0000 36.679584 26.435510 13.116472
1324  3 0.0000 39.613885 28.129725 17.908570
1325  3 0.0000 42.548186 29.823940 22.700668
1326  3 0.0000 24.942827  2.716169  3.532277
1327  3 0.0000 27.877127  4.410384  8.324375
1328  3 0.0000 30.811428  6.104599 13.116472
1329  3 0.0000 33.745729  7.798814 17.908570
1330  3 0.0000 36.680030  9.493028 22.700668
1331  3 0.0000 27.877107  7.798897  3.532277
1332  3 0.0000 30.811408  9.493112  8.324375
1333  3 0.0000 33.745709 11.187327 13.116472
1334  3 0.0000 36.680010 12.881542 17.908570
1335  3 0.0000 39.614311 14.575756 22.700668
1336  3 0.0000 30.811388 12.881625  3.532277
1337  3 0.0000 33.745688 14.575840  8.324375
1338  3 0.0000 36.679989 16.270055 13.116472
1339  3 0.0000 39.614290 17.964269 17.908570
1340  3 0.0000 42.548591 19.658484 22.700668
1341  3 0.0000 33.745668 17.964353  3.532277
1342  3 0.0000 36.679969 19.658568  8.324375
1343  3 0.0000 39.614270 21.352783 13.116472
1344  3 0.0000 42.548571 23.046997 17.908570
1345  3 0.0000 45.482872 24.741212 22.700668
1346  3 0.0000 36.679949 23.047081  3.532277
1347  3 0.0000 39.614249 24.741296  8.324375
1348  3 0.0000 42.548550 26.435510 13.116472
1349  3 0.0000 45.482851 28.129725 17.908570
1350  3 0.0000 48.417152 29.823940 22.700668
1351  3 0.0000 30.811792  2.716169  3.532277
1352  3 0.0000 33.746093  4.410384  8.324375
1353  3 0.0000 36.680394  6.104599 13.116472
1354  3 0.0000 39.614695  7.798814 17.908570
1355  3 0.0000 42.548996  9.493028 22.700668
1356  3 0.0000 33.746073  7.798897  3.532277
1357  3 0.0000 36.680374  9.493112  8.324375
1358  3 0.0000 39.614675 11.187327 13.116472
1359  3 0.0000 42.548976 12.881542 17.908570
1360  3 0.0000 45.483276 14.575756 22.700668
1361  3 0.0000 36.680353 12.881625  3.532277
1362  3 0.0000 39.614654 14.575840  8.324375
1363  3 0.0000 42.548955 16.270055 13.116472
1364  3 0.0000 45.483256 17.964269 17.908570
1365  3 0.0000 48.417557 19.658484 22.700668
1366  3 0.0000 39.614634 17.964353  3.532277
1367  3 0.0000 42.548935 19.658568  8.324375
1368  3 0.0000 45.483236 21.352783 13.116472
1369  3 0.0000 48.417537 23.046997 17.908570
1370  3 0.0000 51.351837 24.741212 22.700668
1371  3 0.0000 42.548914 23.047081  3.532277
1372  3 0.0000 45.483215 24.741296  8.324375
1373  3 0.0000 48.417516 26.435510 13.116472
1374  3 0.0000 51.351817 28.129725 17.908570
1375  3 0.0000 54.286118 29.823940 22.700668
1376  3 0.0000  6.020113  4.995274  3.532217
1377  3 0.0000  8.954414  6.689488  8.324314
1378  3 0.0000 11.888715  8.383703 13.116412
1379  3 0.0000 14.823015 10.077918 17.908510
1380  3 0.0000 17.757316 11.772133 22.700607
1381  3 0.0000  8.954393 10.078002  3.532217
1382  3 0.0000 11.888694 11.772216  8.324314
1383  3 0.0000 14.822995 13.466431 13.116412
1384  3 0.0000 17.757296 15.160646 17.908510
1385  3 0.0000 20.691597 16.854860 22.700607
1386  3 0.0000 11.888674 15.160729  3.532217
1387  3 0.0000 14.822975 16.854944  8.324314
1388  3 0.0000 17.757276 18.549159 13.116412
1389  3 0.0000 20.691576 20.243374 17.908510
1390  3 0.0000 23.625877 21.937588 22.700607
1391  3 0.0000 14.822954 20.243457  3.532217
1392  3 0.0000 17.757255 21.937672  8.324314
1393  3 0.0000 20.691556 23.631887 13.116412
1394  3 0.0000 23.625857 25.326101 17.908510
1395  3 0.0000 26.560158 27.020316 22.700607
1396  3 0.0000 17.757235 25.326185  3.532217
1397  3 0.0000 20.691536 27.020400  8.324314
1398  3 0.0000 23.625837 28.714615 13.116412
1399  3 0.0000 26.560137 30.408829 17.908510
1400  3 0.0000 29.494438 32.103044 22.700607
1401  3 0.0000 11.889079  4.995274  3.532217
1402  3 0.0000 14.823380  6.689488  8.324314
1403  3 0.0000 17.757680  8.383703 13.116412
1404  3 0.0000 20.691981 10.077918 17.908510
1405  3 0.0000 23.626282 11.772133 22.700607
1406  3 0.0000 14.823359 10.078002  3.532217
1407  3 0.0000 17.757660 11.772216  8.324314
1408  3 0.0000 20.691961 13.466431 13.116412
1409  3 0.0000 23.626262 15.160646 17.908510
1410  3 0.0000 26.560563 16.854860 22.700607
1411  3 0.0000 17.757640 15.160729  3.532217
1412  3 0.0000 20.691941 16.854944  8.324314
1413  3 0.0000 23.626241 18.549159 13.116412
1414  3 0.0000 26.560542 20.243374 17.908510
1415  3 0.0000 29.494843 21.937588 22.700607
1416  3 0.0000 20.691920 20.243457  3.532217
1417  3 0.0000 23.626221 21.937672  8.324314
1418  3 0.0000 26.560522 23.631887 13.116412
1419  3 0.0000 29.494823 25.326101 17.908510
1420  3 0.0000 32.429124 27.020316 22.700607
1421  3 0.0000 23.626201 25.326185  3.532217
1422  3 0.0000 26.560502 27.020400  8.324314
1423  3 0.0000 29.494802 28.714615 13.116412
1424  3 0.0000 32.429103 30.408829 17.908510
1425  3 0.0000 35.363404 32.103044 22.700607
1426  3 0.0000 17.758045  4.995274  3.532217
1427  3 0.0000 20.692345  6.689488  8.324314
1428  3 0.0000 23.626646  8.383703 13.116412
1429  3 0.0000 26.560947 10.077918 17.908510
1430  3 0.0000 29.495248 11.772133 22.700607
1431  3 0.0000 20.692325 10.078002  3.532217
1432  3 0.0000 23.626626 11.772216  8.324314
1433  3 0.0000 26.560927 13.466431 13.116412
1434  3 0.0000 29.495228 15.160646 17.908510
1435  3 0.0000 32.429528 16.854860 22.700607
1436  3 0.0000 23.626606 15.160729  3.532217
1437  3 0.0000 26.560906 16.854944  8.324314
1438  3 0.0000 29.495207 18.549159 13.116412
1439  3 0.0000 32.429508 20.243374 17.908510
1440  3 0.0000 35.363809 21.937588 22.700607
1441  3 0.0000 26.560886 20.243457  3.532217
1442  3 0.0000 29.495187 21.937672  8.324314
1443  3 0.0000 32.429488 23.631887 13.116412
1444  3 0.0000 35.363789 25.326101 17.908510
1445  3 0.0000 38.298089 27.020316 22.700607
1446  3 0.0000 29.495167 25.326185  3.532217
1447  3 0.0000 32.429467 27.020400  8.324314
1448  3 0.0000 35.363768 28.714615 13.116412
1449  3 0.0000 38.298069 30.408829 17.908510
1450  3 0.0000 41.232370 32.103044 22.700607
1451  3 0.0000 23.627010  4.995274  3.532217
1452  3 0.0000 26.561311  6.689488  8.324314
1453  3 0.0000 29.495612  8.383703 13.116412
1454  3 0.0000 32.429913 10.077918 17.908510
1455  3 0.0000 35.364214 11.772133 22.700607
1456  3 0.0000 26.561291 10.078002  3.532217
1457  3 0.0000 29.495592 11.772216  8.324314
1458  3 0.0000 32.429893 13.466431 13.116412
1459  3 0.0000 35.364193 15.160646 17.908510
1460  3 0.0000 38.298494 16.854860 22.700607
1461  3 0.0000 29.495571 15.160729  3.532217
1462  3 0.0000 32.429872 16.854944  8.324314
1463  3 0.0000 35.364173 18.549159 13.116412
1464  3 0.0000 38.298474 20.243374 17.908510
1465  3 0.0000 41.232775 21.937588 22.700607
1466  3 0.0000 32.429852 20.243457  3.532217
1467  3 0.0000 35.364153 21.937672  8.324314
1468  3 0.0000 38.298454 23.631887 13.116412
1469  3 0.0000 41.232754 25.326101 17.908510
1470  3 0.0000 44.167055 27.020316 22.700607
1471  3 0.0000 35.364132 25.326185  3.532217
1472  3 0.0000 38.298433 27.020400  8.324314
1473  3 0.0000 41.232734 28.714615 13.116412
1474  3 0.0000 44.167035 30.408829 17.908510
1475  3 0.0000 47.101336 32.103044 22.700607
1476  3 0.0000 29.495976  4.995274  3.532217
1477  3 0.0000 32.430277  6.689488  8.324314
1478  3 0.0000 35.364578  8.383703 13.116412
1479  3 0.0000 38.298879 10.077918 17.908510
1480  3 0.0000 41.233180 11.772133 22.700607
1481  3 0.0000 32.430257 10.078002  3.532217
1482  3 0.0000 35.364558 11.772216  8.324314
1483  3 0.0000 38.298858 13.466431 13.116412
1484  3 0.0000 41.233159 15.160646 17.908510
1485  3 0.0000 44.167460 16.854860 22.700607
1486  3 0.0000 35.364537 15.160729  3.532217
1487  3 0.0000 38.298838 16.854944  8.324314
1488  3 0.0000 41.233139 18.549159 13.116412
1489  3 0.0000 44.167440 20.243374 17.908510
1490  3 0.0000 47.101741 21.937588 22.700607
1491  3 0.0000 38.298818 20.243457  3.532217
1492  3 0.0000 41.233119 21.937672  8.324314
1493  3 0.0000 44.167419 23.631887 13.116412
1494  3 0.0000 47.101720 25.326101 17.908510
1495  3 0.0000 50.036021 27.020316 22.700607
1496  3 0.0000 41.233098 25.326185  3.532217
1497  3 0.0000 44.167399 27.020400  8.324314
1498  3 0.0000 47.101700 28.714615 13.116412
1499  3 0.0000 50.036001 30.408829 17.908510
1500  3 0.0000 52.970302 32.103044 22.700607
1501  3 0.0000  3.085814  1.781574  1.259810
1502  3 0.0000  6.020115  3.475788  6.051907
1503  3 0.0000  8.954416  5.170003 10.844005
1504  3 0.0000 11.888717  6.864218 15.636103
1505  3 0.0000 14.823018  8.558433 20.428200
1506  3 0.0000  6.020095  6.864301  1.259810
1507  3 0.0000  8.954396  8.558516  6.051907
1508  3 0.0000 11.888697 10.252731 10.844005
1509  3 0.0000 14.822998 11.946946 15.636103
1510  3 0.0000 17.757298 13.641160 20.428200
1511  3 0.0000  8.954375 11.947029  1.259810
1512  3 0.0000 11.888676 13.641244  6.051907
1513  3 0.0000 14.822977 15.335459 10.844005
1514  3 0.0000 17.757278 17.029674 15.636103
1515  3 0.0000 20.691579 18.723888 20.428200
1516  3 0.0000 11.888656 17.029757  1.259810
1517  3 0.0000 14.822957 18.723972  6.051907
1518  3 0.0000 17.757258 20.418187 10.844005
1519  3 0.0000 20.691559 22.112401 15.636103
1520  3 0.0000 23.625859 23.806616 20.428200
1521  3 0.0000 14.822936 22.112485  1.259810
1522  3 0.0000 17.757237 23.806700  6.051907
1523  3 0.0000 20.691538 25.500915 10.844005
1524  3 0.0000 23.625839 27.195129 15.636103
1525  3 0.0000 26.560140 28.889344 20.428200
1526  3 0.0000  8.954780  1.781574  1.259810
1527  3 0.0000 11.889081  3.475788  6.051907
1528  3 0.0000 14.823382  5.170003 10.844005
1529  3 0.0000 17.757683  6.864218 15.636103
1530  3 0.0000 20.691984  8.558433 20.428200
1531  3 0.0000 11.889061  6.864301  1.259810
1532  3 0.0000 14.823362  8.558516  6.051907
1533  3 0.0000 17.757662 10.252731 10.844005
1534  3 0.0000 20.691963 11.946946 15.636103
1535  3 0.0000 23.626264 13.641160 20.428200
1536  3 0.0000 14.823341 11.947029  1.259810
1537  3 0.0000 17.757642 13.641244  6.051907
1538  3 0.0000 20.691943 15.335459 10.844005
1539  3 0.0000 23.626244 17.029674 15.636103
1540  3 0.0000 26.560545 18.723888 20.428200
1541  3 0.0000 17.757622 17.029757  1.259810
1542  3 0.0000 20.691923 18.723972  6.051907
1543  3 0.0000 23.626223 20.418187 10.844005
1544  3 0.0000 26.560524 22.112401 15.636103
1545  3 0.0000 29.494825 23.806616 20.428200
1546  3 0.0000 20.691902 22.112485  1.259810
1547  3 0.0000 23.626203 23.806700  6.051907
1548  3 0.0000 26.560504 25.500915 10.844005
1549  3 0.0000 29.494805 27.195129 15.636103
1550  3 0.0000 32.429106 28.889344 20.428200
1551  3 0.0000 14.823746  1.781574  1.259810
1552  3 0.0000 17.758047  3.475788  6.051907
1553  3 0.0000 20.692348  5.170003 10.844005
1554  3 0.0000 23.626649  6.864218 15.636103
1555  3 0.0000 26.560950  8.558433 20.428200
1556  3 0.0000 17.758027  6.864301  1.259810
1557  3 0.0000 20.692327  8.558516  6.051907
1558  3 0.0000 23.626628 10.252731 10.844005
1559  3 0.0000 26.560929 11.946946 15.636103
1560  3 0.0000 29.495230 13.641160 20.428200
1561  3 0.0000 20.692307 11.947029  1.259810
1562  3 0.0000 23.626608 13.641244  6.051907
1563  3 0.0000 26.560909 15.335459 10.844005
1564  3 0.0000 29.495210 17.029674 15.636103
1565  3 0.0000 32.429511 18.723888 20.428200
1566  3 0.0000 23.626588 17.029757  1.259810
1567  3 0.0000 26.560888 18.723972  6.051907
1568  3 0.0000 29.495189 20.418187 10.844005
1569  3 0.0000 32.429490 22.112401 15.636103
1570  3 0.0000 35.363791 23.806616 20.428200
1571  3 0.0000 26.560868 22.112485  1.259810
1572  3 0.0000 29.495169 23.806700  6.051907
1573  3 0.0000 32.429470 25.500915 10.844005
1574  3 0.0000 35.363771 27.195129 15.636103
1575  3 0.0000 38.298072 28.889344 20.428200
1576  3 0.0000 20.692712  1.781574  1.259810
1577  3 0.0000 23.627013  3.475788  6.051907
1578  3 0.0000 26.561314  5.170003 10.844005
1579  3 0.0000 29.495615  6.864218 15.636103
1580  3 0.0000 32.429915  8.558433 20.428200
1581  3 0.0000 23.626992  6.864301  1.259810
1582  3 0.0000 26.561293  8.558516  6.051907
1583  3 0.0000 29.495594 10.252731 10.844005
1584  3 0.0000 32.429895 11.946946 15.636103
1585  3 0.0000 35.364196 13.641160 20.428200
1586  3 0.0000 26.561273 11.947029  1.259810
1587  3 0.0000 29.495574 13.641244  6.051907
1588  3 0.0000 32.429875 15.335459 10.844005
1589  3 0.0000 35.364176 17.029674 15.636103
1590  3 0.0000 38.298476 18.723888 20.428200
1591  3 0.0000 29.495553 17.029757  1.259810
1592  3 0.0000 32.429854 18.723972  6.051907
1593  3 0.0000 35.364155 20.418187 10.844005
1594  3 0.0000 38.298456 22.112401 15.636103
1595  3 0.0000 41.232757 23.806616 20.428200
1596  3 0.0000 32.429834 22.112485  1.259810
1597  3 0.0000 35.364135 23.806700  6.051907
1598  3 0.0000 38.298436 25.500915 10.844005
1599  3 0.0000 41.232737 27.195129 15.636103
1600  3 0.0000 44.167037 28.889344 20.428200
1601  3 0.0000 26.561678  1.781574  1.259810
1602  3 0.0000 29.495979  3.475788  6.051907
1603  3 0.0000 32.430280  5.170003 10.844005
1604  3 0.0000 35.364580  6.864218 15.636103
1605  3 0.0000 38.298881  8.558433 20.428200
1606  3 0.0000 29.495958  6.864301  1.259810
1607  3 0.0000 32.430259  8.558516  6.051907
1608  3 0.0000 35.364560 10.252731 10.844005
1609  3 0.0000 38.298861 11.946946 15.636103
1610  3 0.0000 41.233162 13.641160 20.428200
1611  3 0.0000 32.430239 11.947029  1.259810
1612  3 0.0000 35.364540 13.641244  6.051907
1613  3 0.0000 38.298841 15.335459 10.844005
1614  3 0.0000 41.233141 17.029674 15.636103
1615  3 0.0000 44.167442 18.723888 20.428200
1616  3 0.0000 35.364519 17.029757  1.259810
1617  3 0.0000 38.298820 18.723972  6.051907
1618  3 0.0000 41.233121 20.418187 10.844005
1619  3 0.0000 44.167422 22.112401 15.636103
1620  3 0.0000 47.101723 23.806616 20.428200
1621  3 0.0000 38.298800 22.112485  1.259810
1622  3 0.0000 41.233101 23.806700  6.051907
1623  3 0.0000 44.167402 25.500915 10.844005
1624  3 0.0000 47.101702 27.195129 15.636103
1625  3 0.0000 50.036003 28.889344 20.428200
1626  3 0.0000  7.335917  4.235639  1.383465
1627  3 0.0000 10.270217  5.929853  6.175562
1628  3 0.0000 13.204518  7.624068 10.967660
1629  3 0.0000 16.138819  9.318283 15.759758
1630  3 0.0000 19.073120 11.012498 20.551855
1631  3 0.0000 10.270197  9.318367  1.383465
1632  3 0.0000 13.204498 11.012581  6.175562
1633  3 0.0000 16.138799 12.706796 10.967660
1634  3 0.0000 19.073100 14.401011 15.759758
1635  3 0.0000 22.007401 16.095225 20.551855
1636  3 0.0000 13.204478 14.401094  1.383465
1637  3 0.0000 16.138778 16.095309  6.175562
1638  3 0.0000 19.073079 17.789524 10.967660
1639  3 0.0000 22.007380 19.483739 15.759758
1640  3 0.0000 24.941681 21.177953 20.551855
1641  3 0.0000 16.138758 19.483822  1.383465
1642  3 0.0000 19.073059 21.178037  6.175562
1643  3 0.0000 22.007360 22.872252 10.967660
1644  3 0.0000 24.941661 24.566466 15.759758
1645  3 0.0000 27.875962 26.260681 20.551855
1646  3 0.0000 19.073039 24.566550  1.383465
1647  3 0.0000 22.007339 26.260765  6.175562
1648  3 0.0000 24.941640 27.954980 10.967660
1649  3 0.0000 27.875941 29.649194 15.759758
1650  3 0.0000 30.810242 31.343409 20.551855
1651  3 0.0000 13.204882  4.235639  1.383465
1652  3 0.0000 16.139183  5.929853  6.175562
1653  3 0.0000 19.073484  7.624068 10.967660
1654  3 0.0000 22.007785  9.318283 15.759758
1655  3 0.0000 24.942086 11.012498 20.551855
1656  3 0.0000 16.139163  9.318367  1.383465
1657  3 0.0000 19.073464 11.012581  6.175562
1658  3 0.0000 22.007765 12.706796 10.967660
1659  3 0.0000 24.942065 14.401011 15.759758
1660  3 0.0000 27.876366 16.095225 20.551855
1661  3 0.0000 19.073443 14.401094  1.383465
1662  3 0.0000 22.007744 16.095309  6.175562
1663  3 0.0000 24.942045 17.789524 10.967660
1664  3 0.0000 27.876346 19.483739 15.759758
1665  3 0.0000 30.810647 21.177953 20.551855
1666  3 0.0000 22.007724 19.483822  1.383465
1667  3 0.0000 24.942025 21.178037  6.175562
1668  3 0.0000 27.876326 22.872252 10.967660
1669  3 0.0000 30.810626 24.566466 15.759758
1670  3 0.0000 33.744927 26.260681 20.551855
1671  3 0.0000 24.942004 24.566550  1.383465
1672  3 0.0000 27.876305 26.260765  6.175562
1673  3 0.0000 30.810606 27.954980 10.967660
1674  3 0.0000 33.744907 29.649194 15.759758
1675  3 0.0000 36.679208 31.343409 20.551855
1676  3 0.0000 19.073848  4.235639  1.383465
1677  3 0.0000 22.008149  5.929853  6.175562
1678  3 0.0000 24.942450  7.624068 10.967660
1679  3 0.0000 27.876751  9.318283 15.759758
1680  3 0.0000 30.811052 11.012498 20.551855
1681  3 0.0000 22.008129  9.318367  1.383465
1682  3 0.0000 24.942430 11.012581  6.175562
1683  3 0.0000 27.876730 12.706796 10.967660
1684  3 0.0000 30.811031 14.401011 15.759758
1685  3 0.0000 33.745332 16.095225 20.551855
1686  3 0.0000 24.942409 14.401094  1.383465
1687  3 0.0000 27.876710 16.095309  6.175562
1688  3 0.0000 30.811011 17.789524 10.967660
1689  3 0.0000 33.745312 19.483739 15.759758
1690  3 0.0000 36.679613 21.177953 20.551855
1691  3 0.0000 27.876690 19.483822  1.383465
1692  3 0.0000 30.810991 21.178037  6.175562
1693  3 0.0000 33.745291 22.872252 10.967660
1694  3 0.0000 36.679592 24.566466 15.759758
1695  3 0.0000 39.613893 26.260681 20.551855
1696  3 0.0000 30.810970 24.566550  1.383465
1697  3 0.0000 33.745271 26.260765  6.175562
1698  3 0.0000 36.679572 27.954980 10.967660
1699  3 0.0000 39.613873 29.649194 15.759758
1700  3 0.0000 42.548174 31.343409 20.551855
1701  3 0.0000 24.942814  4.235639  1.383465
1702  3 0.0000 27.877115  5.929853  6.175562
1703  3 0.0000 30.811416  7.624068 10.967660
1704  3 0.0000 33.745717  9.318283 15.759758
1705  3 0.0000 36.680018 11.012498 20.551855
1706  3 0.0000 27.877095  9.318367  1.383465
1707  3 0.0000 30.811395 11.012581  6.175562
1708  3 0.0000 33.745696 12.706796 10.967660
1709  3 0.0000 36.679997 14.401011 15.759758
1710  3 0.0000 39.614298 16.095225 20.551855
1711  3 0.0000 30.811375 14.401094  1.383465
1712  3 0.0000 33.745676 16.095309  6.175562
1713  3 0.0000 36.679977 17.789524 10.967660
1714  3 0.0000 39.614278 19.483739 15.759758
1715  3 0.0000 42.548579 21.177953 20.551855
1716  3 0.0000 33.745656 19.483822  1.383465
1717  3 0.0000 36.679956 21.178037  6.175562
1718  3 0.0000 39.614257 22.872252 10.967660
1719  3 0.0000 42.548558 24.566466 15.759758
1720  3 0.0000 45.482859 26.260681 20.551855
1721  3 0.0000 36.679936 24.566550  1.383465
1722  3 0.0000 39.614237 26.260765  6.175562
1723  3 0.0000 42.548538 27.954980 10.967660
1724  3 0.0000 45.482839 29.649194 15.759758
1725  3 0.0000 48.417140 31.343409 20.551855
1726  3 0.0000 30.811780  4.235639  1.383465
1727  3 0.0000 33.746081  5.929853  6.175562
1728  3 0.0000 36.680382  7.624068 10.967660
1729  3 0.0000 39.614683  9.318283 15.759758
1730  3 0.0000 42.548983 11.012498 20.551855
1731  3 0.0000 33.746060  9.318367  1.383465
1732  3 0.0000 36.680361 11.012581  6.175562
1733  3 0.0000 39.614662 12.706796 10.967660
1734  3 0.0000 42.548963 14.401011 15.759758
1735  3 0.0000 45.483264 16.095225 20.551855
1736  3 0.0000 36.680341 14.401094  1.383465
1737  3 0.0000 39.614642 16.095309  6.175562
1738  3 0.0000 42.548943 17.789524 10.967660
1739  3 0.0000 45.483244 19.483739 15.759758
1740  3 0.0000 48.417544 21.177953 20.551855
1741  3 0.0000 39.614621 19.483822  1.383465
1742  3 0.0000 42.548922 21.178037  6.175562
1743  3 0.0000 45.483223 22.872252 10.967660
1744  3 0.0000 48.417524 24.566466 15.759758
1745  3 0.0000 51.351825 26.260681 20.551855
1746  3 0.0000 42.548902 24.566550  1.383465
1747  3 0.0000 45.483203 26.260765  6.175562
1748  3 0.0000 48.417504 27.954980 10.967660
1749  3 0.0000 51.351805 29.649194 15.759758
1750  3 0.0000 54.286105 31.343409 20.551855

