Generated by pymatgen.io.lammps.data.LammpsData

240  atoms

  3  atom types

0.000000 9.281612  xlo xhi
0.000000 16.076224  ylo yhi
0.000000 14.887215  zlo zhi

Masses

1  24.3050
2  12.0107
3  15.9994

Atoms

1    1 0.0000 4.640806  2.679371  2.481202
2    1 0.0000 4.640806 10.717483  2.481202
3    1 0.0000 0.000000  2.679371  2.481202
4    1 0.0000 9.281612 10.717483  2.481202
5    1 0.0000 2.320403  6.698427  2.481202
6    1 0.0000 2.320403 14.736539  2.481202
7    1 0.0000 6.961209  6.698427  2.481202
8    1 0.0000 6.961209 14.736539  2.481202
9    1 0.0000 0.000000  0.000000  0.000000
10   1 0.0000 0.000000  8.038112  0.000000
11   1 0.0000 4.640806  0.000000  0.000000
12   1 0.0000 4.640806  8.038112  0.000000
13   1 0.0000 2.320403  4.019056  0.000000
14   1 0.0000 2.320403 12.057168  0.000000
15   1 0.0000 6.961209  4.019056  0.000000
16   1 0.0000 6.961209 12.057168  0.000000
17   1 0.0000 4.640806  0.000000  7.443607
18   1 0.0000 4.640806  8.038112  7.443607
19   1 0.0000 9.281612  0.000000  7.443607
20   1 0.0000 9.281612  8.038112  7.443607
21   1 0.0000 2.320403  4.019056  7.443607
22   1 0.0000 2.320403 12.057168  7.443607
23   1 0.0000 6.961209  4.019056  7.443607
24   1 0.0000 6.961209 12.057168  7.443607
25   1 0.0000 2.320403  1.339685  4.962405
26   1 0.0000 2.320403  9.377798  4.962405
27   1 0.0000 6.961209  1.339685  4.962405
28   1 0.0000 6.961209  9.377798  4.962405
29   1 0.0000 4.640806  5.358741  4.962405
30   1 0.0000 4.640806 13.396854  4.962405
31   1 0.0000 9.281612  5.358741  4.962405
32   1 0.0000 0.000000 13.396854  4.962405
33   1 0.0000 2.320403  1.339685 12.406012
34   1 0.0000 2.320403  9.377798 12.406012
35   1 0.0000 6.961209  1.339685 12.406012
36   1 0.0000 6.961209  9.377798 12.406012
37   1 0.0000 4.640806  5.358741 12.406012
38   1 0.0000 4.640806 13.396854 12.406012
39   1 0.0000 9.281612  5.358741 12.406012
40   1 0.0000 0.000000 13.396854 12.406012
41   1 0.0000 4.640806  2.679371  9.924810
42   1 0.0000 4.640806 10.717483  9.924810
43   1 0.0000 9.281612  2.679371  9.924810
44   1 0.0000 9.281612 10.717483  9.924810
45   1 0.0000 2.320403  6.698427  9.924810
46   1 0.0000 2.320403 14.736539  9.924810
47   1 0.0000 6.961209  6.698427  9.924810
48   1 0.0000 6.961209 14.736539  9.924810
49   2 0.0000 0.000000  0.000000  3.721804
50   2 0.0000 0.000000  8.038112  3.721804
51   2 0.0000 4.640806  0.000000  3.721804
52   2 0.0000 4.640806  8.038112  3.721804
53   2 0.0000 2.320403  4.019056  3.721804
54   2 0.0000 2.320403 12.057168  3.721804
55   2 0.0000 6.961209  4.019056  3.721804
56   2 0.0000 6.961209 12.057168  3.721804
57   2 0.0000 2.320403  1.339685  1.240601
58   2 0.0000 2.320403  9.377798  1.240601
59   2 0.0000 6.961209  1.339685  1.240601
60   2 0.0000 6.961209  9.377798  1.240601
61   2 0.0000 0.000000  5.358741  1.240601
62   2 0.0000 0.000000 13.396854  1.240601
63   2 0.0000 4.640806  5.358741  1.240601
64   2 0.0000 4.640806 13.396854  1.240601
65   2 0.0000 2.320403  1.339685  8.684208
66   2 0.0000 2.320403  9.377798  8.684208
67   2 0.0000 6.961209  1.339685  8.684208
68   2 0.0000 6.961209  9.377798  8.684208
69   2 0.0000 0.000000  5.358741  8.684208
70   2 0.0000 0.000000 13.396854  8.684208
71   2 0.0000 4.640806  5.358741  8.684208
72   2 0.0000 4.640806 13.396854  8.684208
73   2 0.0000 4.640806  2.679371  6.203006
74   2 0.0000 4.640806 10.717483  6.203006
75   2 0.0000 0.000000  2.679371  6.203006
76   2 0.0000 9.281612 10.717483  6.203006
77   2 0.0000 2.320403  6.698427  6.203006
78   2 0.0000 2.320403 14.736539  6.203006
79   2 0.0000 6.961209  6.698427  6.203006
80   2 0.0000 6.961209 14.736539  6.203006
81   2 0.0000 0.000000  2.679371 13.646613
82   2 0.0000 0.000000 10.717483 13.646613
83   2 0.0000 4.640806  2.679371 13.646613
84   2 0.0000 4.640806 10.717483 13.646613
85   2 0.0000 2.320403  6.698427 13.646613
86   2 0.0000 2.320403 14.736539 13.646613
87   2 0.0000 6.961209  6.698427 13.646613
88   2 0.0000 6.961209 14.736539 13.646613
89   2 0.0000 0.000000  0.000000 11.165411
90   2 0.0000 0.000000  8.038112 11.165411
91   2 0.0000 4.640806  0.000000 11.165411
92   2 0.0000 4.640806  8.038112 11.165411
93   2 0.0000 2.320403  4.019056 11.165411
94   2 0.0000 2.320403 12.057168 11.165411
95   2 0.0000 6.961209  4.019056 11.165411
96   2 0.0000 6.961209 12.057168 11.165411
97   3 0.0000 0.644333  1.116018  3.721804
98   3 0.0000 0.644333  9.154130  3.721804
99   3 0.0000 5.285140  1.116018  3.721804
100  3 0.0000 5.285140  9.154130  3.721804
101  3 0.0000 2.964736  5.135074  3.721804
102  3 0.0000 2.964736 13.173186  3.721804
103  3 0.0000 7.605543  5.135074  3.721804
104  3 0.0000 7.605543 13.173186  3.721804
105  3 0.0000 2.964736  2.903038  3.721804
106  3 0.0000 2.964736 10.941150  3.721804
107  3 0.0000 7.605543  2.903038  3.721804
108  3 0.0000 7.605543 10.941150  3.721804
109  3 0.0000 0.644333  6.922094  3.721804
110  3 0.0000 0.644333 14.960206  3.721804
111  3 0.0000 5.285140  6.922094  3.721804
112  3 0.0000 5.285140 14.960206  3.721804
113  3 0.0000 3.609070  1.339685  1.240601
114  3 0.0000 3.609070  9.377798  1.240601
115  3 0.0000 8.249876  1.339685  1.240601
116  3 0.0000 8.249876  9.377798  1.240601
117  3 0.0000 1.288667  5.358741  1.240601
118  3 0.0000 1.288667 13.396854  1.240601
119  3 0.0000 5.929473  5.358741  1.240601
120  3 0.0000 5.929473 13.396854  1.240601
121  3 0.0000 1.676070  0.223667  1.240601
122  3 0.0000 1.676070  8.261779  1.240601
123  3 0.0000 6.316876  0.223667  1.240601
124  3 0.0000 6.316876  8.261779  1.240601
125  3 0.0000 3.996473  4.242723  1.240601
126  3 0.0000 3.996473 12.280836  1.240601
127  3 0.0000 8.637279  4.242723  1.240601
128  3 0.0000 8.637279 12.280836  1.240601
129  3 0.0000 1.676070  2.455703  1.240601
130  3 0.0000 1.676070 10.493816  1.240601
131  3 0.0000 6.316876  2.455703  1.240601
132  3 0.0000 6.316876 10.493816  1.240601
133  3 0.0000 3.996473  6.474760  1.240601
134  3 0.0000 3.996473 14.512872  1.240601
135  3 0.0000 8.637279  6.474760  1.240601
136  3 0.0000 8.637279 14.512872  1.240601
137  3 0.0000 3.352140  0.000000  3.721804
138  3 0.0000 3.352140  8.038112  3.721804
139  3 0.0000 7.992946  0.000000  3.721804
140  3 0.0000 7.992946  8.038112  3.721804
141  3 0.0000 1.031736  4.019056  3.721804
142  3 0.0000 1.031736 12.057168  3.721804
143  3 0.0000 5.672543  4.019056  3.721804
144  3 0.0000 5.672543 12.057168  3.721804
145  3 0.0000 2.964736  2.455703  8.684208
146  3 0.0000 2.964736 10.493816  8.684208
147  3 0.0000 7.605543  2.455703  8.684208
148  3 0.0000 7.605543 10.493816  8.684208
149  3 0.0000 0.644333  6.474760  8.684208
150  3 0.0000 0.644333 14.512872  8.684208
151  3 0.0000 5.285140  6.474760  8.684208
152  3 0.0000 5.285140 14.512872  8.684208
153  3 0.0000 2.964736  0.223667  8.684208
154  3 0.0000 2.964736  8.261779  8.684208
155  3 0.0000 7.605543  0.223667  8.684208
156  3 0.0000 7.605543  8.261779  8.684208
157  3 0.0000 0.644333  4.242723  8.684208
158  3 0.0000 0.644333 12.280836  8.684208
159  3 0.0000 5.285140  4.242723  8.684208
160  3 0.0000 5.285140 12.280836  8.684208
161  3 0.0000 1.288667  2.679371  6.203006
162  3 0.0000 1.288667 10.717483  6.203006
163  3 0.0000 5.929473  2.679371  6.203006
164  3 0.0000 5.929473 10.717483  6.203006
165  3 0.0000 3.609070  6.698427  6.203006
166  3 0.0000 3.609070 14.736539  6.203006
167  3 0.0000 8.249876  6.698427  6.203006
168  3 0.0000 8.249876 14.736539  6.203006
169  3 0.0000 3.996473  1.563353  6.203006
170  3 0.0000 3.996473  9.601465  6.203006
171  3 0.0000 8.637279  1.563353  6.203006
172  3 0.0000 8.637279  9.601465  6.203006
173  3 0.0000 1.676070  5.582409  6.203006
174  3 0.0000 1.676070 13.620521  6.203006
175  3 0.0000 6.316876  5.582409  6.203006
176  3 0.0000 6.316876 13.620521  6.203006
177  3 0.0000 3.996473  3.795389  6.203006
178  3 0.0000 3.996473 11.833501  6.203006
179  3 0.0000 8.637279  3.795389  6.203006
180  3 0.0000 8.637279 11.833501  6.203006
181  3 0.0000 1.676070  7.814445  6.203006
182  3 0.0000 1.676070 15.852557  6.203006
183  3 0.0000 6.316876  7.814445  6.203006
184  3 0.0000 6.316876 15.852557  6.203006
185  3 0.0000 1.031736  1.339685  8.684208
186  3 0.0000 1.031736  9.377798  8.684208
187  3 0.0000 5.672543  1.339685  8.684208
188  3 0.0000 5.672543  9.377798  8.684208
189  3 0.0000 3.352140  5.358741  8.684208
190  3 0.0000 3.352140 13.396854  8.684208
191  3 0.0000 7.992946  5.358741  8.684208
192  3 0.0000 7.992946 13.396854  8.684208
193  3 0.0000 0.644333  3.795389 13.646613
194  3 0.0000 0.644333 11.833501 13.646613
195  3 0.0000 5.285140  3.795389 13.646613
196  3 0.0000 5.285140 11.833501 13.646613
197  3 0.0000 2.964736  7.814445 13.646613
198  3 0.0000 2.964736 15.852557 13.646613
199  3 0.0000 7.605543  7.814445 13.646613
200  3 0.0000 7.605543 15.852557 13.646613
201  3 0.0000 0.644333  1.563353 13.646613
202  3 0.0000 0.644333  9.601465 13.646613
203  3 0.0000 5.285140  1.563353 13.646613
204  3 0.0000 5.285140  9.601465 13.646613
205  3 0.0000 2.964736  5.582409 13.646613
206  3 0.0000 2.964736 13.620521 13.646613
207  3 0.0000 7.605543  5.582409 13.646613
208  3 0.0000 7.605543 13.620521 13.646613
209  3 0.0000 1.288667  0.000000 11.165411
210  3 0.0000 1.288667  8.038112 11.165411
211  3 0.0000 5.929473  0.000000 11.165411
212  3 0.0000 5.929473  8.038112 11.165411
213  3 0.0000 3.609070  4.019056 11.165411
214  3 0.0000 3.609070 12.057168 11.165411
215  3 0.0000 8.249876  4.019056 11.165411
216  3 0.0000 8.249876 12.057168 11.165411
217  3 0.0000 1.676070  2.903038 11.165411
218  3 0.0000 1.676070 10.941150 11.165411
219  3 0.0000 6.316876  2.903038 11.165411
220  3 0.0000 6.316876 10.941150 11.165411
221  3 0.0000 3.996473  6.922094 11.165411
222  3 0.0000 3.996473 14.960206 11.165411
223  3 0.0000 8.637279  6.922094 11.165411
224  3 0.0000 8.637279 14.960206 11.165411
225  3 0.0000 3.996473  1.116018 11.165411
226  3 0.0000 3.996473  9.154130 11.165411
227  3 0.0000 8.637279  1.116018 11.165411
228  3 0.0000 8.637279  9.154130 11.165411
229  3 0.0000 1.676070  5.135074 11.165411
230  3 0.0000 1.676070 13.173186 11.165411
231  3 0.0000 6.316876  5.135074 11.165411
232  3 0.0000 6.316876 13.173186 11.165411
233  3 0.0000 3.352140  2.679371 13.646613
234  3 0.0000 3.352140 10.717483 13.646613
235  3 0.0000 7.992946  2.679371 13.646613
236  3 0.0000 7.992946 10.717483 13.646613
237  3 0.0000 1.031736  6.698427 13.646613
238  3 0.0000 1.031736 14.736539 13.646613
239  3 0.0000 5.672543  6.698427 13.646613
240  3 0.0000 5.672543 14.736539 13.646613

