Generated by pymatgen.io.lammps.data.LammpsData

750  atoms

  2  atom types

0.000000 15.238918  xlo xhi
0.000000 23.075983  ylo yhi
0.000000 23.075983  zlo zhi

Masses

1  24.305000
2  18.998403

Atoms

1    1 0.0000  1.523892  2.307598  2.307598
2    1 0.0000  1.523892  2.307598  6.922795
3    1 0.0000  1.523892  2.307598 11.537992
4    1 0.0000  1.523892  2.307598 16.153188
5    1 0.0000  1.523892  2.307598 20.768385
6    1 0.0000  1.523892  6.922795  2.307598
7    1 0.0000  1.523892  6.922795  6.922795
8    1 0.0000  1.523892  6.922795 11.537992
9    1 0.0000  1.523892  6.922795 16.153188
10   1 0.0000  1.523892  6.922795 20.768385
11   1 0.0000  1.523892 11.537992  2.307598
12   1 0.0000  1.523892 11.537992  6.922795
13   1 0.0000  1.523892 11.537992 11.537992
14   1 0.0000  1.523892 11.537992 16.153188
15   1 0.0000  1.523892 11.537992 20.768385
16   1 0.0000  1.523892 16.153188  2.307598
17   1 0.0000  1.523892 16.153188  6.922795
18   1 0.0000  1.523892 16.153188 11.537992
19   1 0.0000  1.523892 16.153188 16.153188
20   1 0.0000  1.523892 16.153188 20.768385
21   1 0.0000  1.523892 20.768385  2.307598
22   1 0.0000  1.523892 20.768385  6.922795
23   1 0.0000  1.523892 20.768385 11.537992
24   1 0.0000  1.523892 20.768385 16.153188
25   1 0.0000  1.523892 20.768385 20.768385
26   1 0.0000  4.571675  2.307598  2.307598
27   1 0.0000  4.571675  2.307598  6.922795
28   1 0.0000  4.571675  2.307598 11.537992
29   1 0.0000  4.571675  2.307598 16.153188
30   1 0.0000  4.571675  2.307598 20.768385
31   1 0.0000  4.571675  6.922795  2.307598
32   1 0.0000  4.571675  6.922795  6.922795
33   1 0.0000  4.571675  6.922795 11.537992
34   1 0.0000  4.571675  6.922795 16.153188
35   1 0.0000  4.571675  6.922795 20.768385
36   1 0.0000  4.571675 11.537992  2.307598
37   1 0.0000  4.571675 11.537992  6.922795
38   1 0.0000  4.571675 11.537992 11.537992
39   1 0.0000  4.571675 11.537992 16.153188
40   1 0.0000  4.571675 11.537992 20.768385
41   1 0.0000  4.571675 16.153188  2.307598
42   1 0.0000  4.571675 16.153188  6.922795
43   1 0.0000  4.571675 16.153188 11.537992
44   1 0.0000  4.571675 16.153188 16.153188
45   1 0.0000  4.571675 16.153188 20.768385
46   1 0.0000  4.571675 20.768385  2.307598
47   1 0.0000  4.571675 20.768385  6.922795
48   1 0.0000  4.571675 20.768385 11.537992
49   1 0.0000  4.571675 20.768385 16.153188
50   1 0.0000  4.571675 20.768385 20.768385
51   1 0.0000  7.619459  2.307598  2.307598
52   1 0.0000  7.619459  2.307598  6.922795
53   1 0.0000  7.619459  2.307598 11.537992
54   1 0.0000  7.619459  2.307598 16.153188
55   1 0.0000  7.619459  2.307598 20.768385
56   1 0.0000  7.619459  6.922795  2.307598
57   1 0.0000  7.619459  6.922795  6.922795
58   1 0.0000  7.619459  6.922795 11.537992
59   1 0.0000  7.619459  6.922795 16.153188
60   1 0.0000  7.619459  6.922795 20.768385
61   1 0.0000  7.619459 11.537992  2.307598
62   1 0.0000  7.619459 11.537992  6.922795
63   1 0.0000  7.619459 11.537992 11.537992
64   1 0.0000  7.619459 11.537992 16.153188
65   1 0.0000  7.619459 11.537992 20.768385
66   1 0.0000  7.619459 16.153188  2.307598
67   1 0.0000  7.619459 16.153188  6.922795
68   1 0.0000  7.619459 16.153188 11.537992
69   1 0.0000  7.619459 16.153188 16.153188
70   1 0.0000  7.619459 16.153188 20.768385
71   1 0.0000  7.619459 20.768385  2.307598
72   1 0.0000  7.619459 20.768385  6.922795
73   1 0.0000  7.619459 20.768385 11.537992
74   1 0.0000  7.619459 20.768385 16.153188
75   1 0.0000  7.619459 20.768385 20.768385
76   1 0.0000 10.667242  2.307598  2.307598
77   1 0.0000 10.667242  2.307598  6.922795
78   1 0.0000 10.667242  2.307598 11.537992
79   1 0.0000 10.667242  2.307598 16.153188
80   1 0.0000 10.667242  2.307598 20.768385
81   1 0.0000 10.667242  6.922795  2.307598
82   1 0.0000 10.667242  6.922795  6.922795
83   1 0.0000 10.667242  6.922795 11.537992
84   1 0.0000 10.667242  6.922795 16.153188
85   1 0.0000 10.667242  6.922795 20.768385
86   1 0.0000 10.667242 11.537992  2.307598
87   1 0.0000 10.667242 11.537992  6.922795
88   1 0.0000 10.667242 11.537992 11.537992
89   1 0.0000 10.667242 11.537992 16.153188
90   1 0.0000 10.667242 11.537992 20.768385
91   1 0.0000 10.667242 16.153188  2.307598
92   1 0.0000 10.667242 16.153188  6.922795
93   1 0.0000 10.667242 16.153188 11.537992
94   1 0.0000 10.667242 16.153188 16.153188
95   1 0.0000 10.667242 16.153188 20.768385
96   1 0.0000 10.667242 20.768385  2.307598
97   1 0.0000 10.667242 20.768385  6.922795
98   1 0.0000 10.667242 20.768385 11.537992
99   1 0.0000 10.667242 20.768385 16.153188
100  1 0.0000 10.667242 20.768385 20.768385
101  1 0.0000 13.715026  2.307598  2.307598
102  1 0.0000 13.715026  2.307598  6.922795
103  1 0.0000 13.715026  2.307598 11.537992
104  1 0.0000 13.715026  2.307598 16.153188
105  1 0.0000 13.715026  2.307598 20.768385
106  1 0.0000 13.715026  6.922795  2.307598
107  1 0.0000 13.715026  6.922795  6.922795
108  1 0.0000 13.715026  6.922795 11.537992
109  1 0.0000 13.715026  6.922795 16.153188
110  1 0.0000 13.715026  6.922795 20.768385
111  1 0.0000 13.715026 11.537992  2.307598
112  1 0.0000 13.715026 11.537992  6.922795
113  1 0.0000 13.715026 11.537992 11.537992
114  1 0.0000 13.715026 11.537992 16.153188
115  1 0.0000 13.715026 11.537992 20.768385
116  1 0.0000 13.715026 16.153188  2.307598
117  1 0.0000 13.715026 16.153188  6.922795
118  1 0.0000 13.715026 16.153188 11.537992
119  1 0.0000 13.715026 16.153188 16.153188
120  1 0.0000 13.715026 16.153188 20.768385
121  1 0.0000 13.715026 20.768385  2.307598
122  1 0.0000 13.715026 20.768385  6.922795
123  1 0.0000 13.715026 20.768385 11.537992
124  1 0.0000 13.715026 20.768385 16.153188
125  1 0.0000 13.715026 20.768385 20.768385
126  1 0.0000  0.000000  0.000000  0.000000
127  1 0.0000  0.000000  0.000000  4.615197
128  1 0.0000  0.000000  0.000000  9.230393
129  1 0.0000  0.000000  0.000000 13.845590
130  1 0.0000  0.000000  0.000000 18.460786
131  1 0.0000  0.000000  4.615197  0.000000
132  1 0.0000  0.000000  4.615197  4.615197
133  1 0.0000  0.000000  4.615197  9.230393
134  1 0.0000  0.000000  4.615197 13.845590
135  1 0.0000  0.000000  4.615197 18.460786
136  1 0.0000  0.000000  9.230393  0.000000
137  1 0.0000  0.000000  9.230393  4.615197
138  1 0.0000  0.000000  9.230393  9.230393
139  1 0.0000  0.000000  9.230393 13.845590
140  1 0.0000  0.000000  9.230393 18.460786
141  1 0.0000  0.000000 13.845590  0.000000
142  1 0.0000  0.000000 13.845590  4.615197
143  1 0.0000  0.000000 13.845590  9.230393
144  1 0.0000  0.000000 13.845590 13.845590
145  1 0.0000  0.000000 13.845590 18.460786
146  1 0.0000  0.000000 18.460786  0.000000
147  1 0.0000  0.000000 18.460786  4.615197
148  1 0.0000  0.000000 18.460786  9.230393
149  1 0.0000  0.000000 18.460786 13.845590
150  1 0.0000  0.000000 18.460786 18.460786
151  1 0.0000  3.047784  0.000000 -0.000000
152  1 0.0000  3.047784  0.000000  4.615197
153  1 0.0000  3.047784  0.000000  9.230393
154  1 0.0000  3.047784  0.000000 13.845590
155  1 0.0000  3.047784  0.000000 18.460786
156  1 0.0000  3.047784  4.615197 -0.000000
157  1 0.0000  3.047784  4.615197  4.615197
158  1 0.0000  3.047784  4.615197  9.230393
159  1 0.0000  3.047784  4.615197 13.845590
160  1 0.0000  3.047784  4.615197 18.460786
161  1 0.0000  3.047784  9.230393  0.000000
162  1 0.0000  3.047784  9.230393  4.615197
163  1 0.0000  3.047784  9.230393  9.230393
164  1 0.0000  3.047784  9.230393 13.845590
165  1 0.0000  3.047784  9.230393 18.460786
166  1 0.0000  3.047784 13.845590  0.000000
167  1 0.0000  3.047784 13.845590  4.615197
168  1 0.0000  3.047784 13.845590  9.230393
169  1 0.0000  3.047784 13.845590 13.845590
170  1 0.0000  3.047784 13.845590 18.460786
171  1 0.0000  3.047784 18.460786  0.000000
172  1 0.0000  3.047784 18.460786  4.615197
173  1 0.0000  3.047784 18.460786  9.230393
174  1 0.0000  3.047784 18.460786 13.845590
175  1 0.0000  3.047784 18.460786 18.460786
176  1 0.0000  6.095567  0.000000 -0.000000
177  1 0.0000  6.095567  0.000000  4.615197
178  1 0.0000  6.095567  0.000000  9.230393
179  1 0.0000  6.095567  0.000000 13.845590
180  1 0.0000  6.095567  0.000000 18.460786
181  1 0.0000  6.095567  4.615197  0.000000
182  1 0.0000  6.095567  4.615197  4.615197
183  1 0.0000  6.095567  4.615197  9.230393
184  1 0.0000  6.095567  4.615197 13.845590
185  1 0.0000  6.095567  4.615197 18.460786
186  1 0.0000  6.095567  9.230393 -0.000000
187  1 0.0000  6.095567  9.230393  4.615197
188  1 0.0000  6.095567  9.230393  9.230393
189  1 0.0000  6.095567  9.230393 13.845590
190  1 0.0000  6.095567  9.230393 18.460786
191  1 0.0000  6.095567 13.845590 -0.000000
192  1 0.0000  6.095567 13.845590  4.615197
193  1 0.0000  6.095567 13.845590  9.230393
194  1 0.0000  6.095567 13.845590 13.845590
195  1 0.0000  6.095567 13.845590 18.460786
196  1 0.0000  6.095567 18.460786  0.000000
197  1 0.0000  6.095567 18.460786  4.615197
198  1 0.0000  6.095567 18.460786  9.230393
199  1 0.0000  6.095567 18.460786 13.845590
200  1 0.0000  6.095567 18.460786 18.460786
201  1 0.0000  9.143351  0.000000  0.000000
202  1 0.0000  9.143351  0.000000  4.615197
203  1 0.0000  9.143351  0.000000  9.230393
204  1 0.0000  9.143351  0.000000 13.845590
205  1 0.0000  9.143351  0.000000 18.460786
206  1 0.0000  9.143351  4.615197  0.000000
207  1 0.0000  9.143351  4.615197  4.615197
208  1 0.0000  9.143351  4.615197  9.230393
209  1 0.0000  9.143351  4.615197 13.845590
210  1 0.0000  9.143351  4.615197 18.460786
211  1 0.0000  9.143351  9.230393  0.000000
212  1 0.0000  9.143351  9.230393  4.615197
213  1 0.0000  9.143351  9.230393  9.230393
214  1 0.0000  9.143351  9.230393 13.845590
215  1 0.0000  9.143351  9.230393 18.460786
216  1 0.0000  9.143351 13.845590  0.000000
217  1 0.0000  9.143351 13.845590  4.615197
218  1 0.0000  9.143351 13.845590  9.230393
219  1 0.0000  9.143351 13.845590 13.845590
220  1 0.0000  9.143351 13.845590 18.460786
221  1 0.0000  9.143351 18.460786  0.000000
222  1 0.0000  9.143351 18.460786  4.615197
223  1 0.0000  9.143351 18.460786  9.230393
224  1 0.0000  9.143351 18.460786 13.845590
225  1 0.0000  9.143351 18.460786 18.460786
226  1 0.0000 12.191134  0.000000 -0.000000
227  1 0.0000 12.191134  0.000000  4.615197
228  1 0.0000 12.191134  0.000000  9.230393
229  1 0.0000 12.191134  0.000000 13.845590
230  1 0.0000 12.191134  0.000000 18.460786
231  1 0.0000 12.191134  4.615197  0.000000
232  1 0.0000 12.191134  4.615197  4.615197
233  1 0.0000 12.191134  4.615197  9.230393
234  1 0.0000 12.191134  4.615197 13.845590
235  1 0.0000 12.191134  4.615197 18.460786
236  1 0.0000 12.191134  9.230393  0.000000
237  1 0.0000 12.191134  9.230393  4.615197
238  1 0.0000 12.191134  9.230393  9.230393
239  1 0.0000 12.191134  9.230393 13.845590
240  1 0.0000 12.191134  9.230393 18.460786
241  1 0.0000 12.191134 13.845590  0.000000
242  1 0.0000 12.191134 13.845590  4.615197
243  1 0.0000 12.191134 13.845590  9.230393
244  1 0.0000 12.191134 13.845590 13.845590
245  1 0.0000 12.191134 13.845590 18.460786
246  1 0.0000 12.191134 18.460786 -0.000000
247  1 0.0000 12.191134 18.460786  4.615197
248  1 0.0000 12.191134 18.460786  9.230393
249  1 0.0000 12.191134 18.460786 13.845590
250  1 0.0000 12.191134 18.460786 18.460786
251  2 0.0000  0.000000  3.217161  3.217161
252  2 0.0000  0.000000  3.217161  7.832357
253  2 0.0000  0.000000  3.217161 12.447554
254  2 0.0000  0.000000  3.217161 17.062750
255  2 0.0000  0.000000  3.217161 21.677947
256  2 0.0000  0.000000  7.832357  3.217161
257  2 0.0000  0.000000  7.832357  7.832357
258  2 0.0000  0.000000  7.832357 12.447554
259  2 0.0000  0.000000  7.832357 17.062750
260  2 0.0000  0.000000  7.832357 21.677947
261  2 0.0000  0.000000 12.447554  3.217161
262  2 0.0000  0.000000 12.447554  7.832357
263  2 0.0000  0.000000 12.447554 12.447554
264  2 0.0000  0.000000 12.447554 17.062750
265  2 0.0000  0.000000 12.447554 21.677947
266  2 0.0000  0.000000 17.062750  3.217161
267  2 0.0000  0.000000 17.062750  7.832357
268  2 0.0000  0.000000 17.062750 12.447554
269  2 0.0000  0.000000 17.062750 17.062750
270  2 0.0000  0.000000 17.062750 21.677947
271  2 0.0000  0.000000 21.677947  3.217161
272  2 0.0000  0.000000 21.677947  7.832357
273  2 0.0000  0.000000 21.677947 12.447554
274  2 0.0000  0.000000 21.677947 17.062750
275  2 0.0000  0.000000 21.677947 21.677947
276  2 0.0000  3.047784  3.217161  3.217161
277  2 0.0000  3.047784  3.217161  7.832357
278  2 0.0000  3.047784  3.217161 12.447554
279  2 0.0000  3.047784  3.217161 17.062750
280  2 0.0000  3.047784  3.217161 21.677947
281  2 0.0000  3.047784  7.832357  3.217161
282  2 0.0000  3.047784  7.832357  7.832357
283  2 0.0000  3.047784  7.832357 12.447554
284  2 0.0000  3.047784  7.832357 17.062750
285  2 0.0000  3.047784  7.832357 21.677947
286  2 0.0000  3.047784 12.447554  3.217161
287  2 0.0000  3.047784 12.447554  7.832357
288  2 0.0000  3.047784 12.447554 12.447554
289  2 0.0000  3.047784 12.447554 17.062750
290  2 0.0000  3.047784 12.447554 21.677947
291  2 0.0000  3.047784 17.062750  3.217161
292  2 0.0000  3.047784 17.062750  7.832357
293  2 0.0000  3.047784 17.062750 12.447554
294  2 0.0000  3.047784 17.062750 17.062750
295  2 0.0000  3.047784 17.062750 21.677947
296  2 0.0000  3.047784 21.677947  3.217161
297  2 0.0000  3.047784 21.677947  7.832357
298  2 0.0000  3.047784 21.677947 12.447554
299  2 0.0000  3.047784 21.677947 17.062750
300  2 0.0000  3.047784 21.677947 21.677947
301  2 0.0000  6.095567  3.217161  3.217161
302  2 0.0000  6.095567  3.217161  7.832357
303  2 0.0000  6.095567  3.217161 12.447554
304  2 0.0000  6.095567  3.217161 17.062750
305  2 0.0000  6.095567  3.217161 21.677947
306  2 0.0000  6.095567  7.832357  3.217161
307  2 0.0000  6.095567  7.832357  7.832357
308  2 0.0000  6.095567  7.832357 12.447554
309  2 0.0000  6.095567  7.832357 17.062750
310  2 0.0000  6.095567  7.832357 21.677947
311  2 0.0000  6.095567 12.447554  3.217161
312  2 0.0000  6.095567 12.447554  7.832357
313  2 0.0000  6.095567 12.447554 12.447554
314  2 0.0000  6.095567 12.447554 17.062750
315  2 0.0000  6.095567 12.447554 21.677947
316  2 0.0000  6.095567 17.062750  3.217161
317  2 0.0000  6.095567 17.062750  7.832357
318  2 0.0000  6.095567 17.062750 12.447554
319  2 0.0000  6.095567 17.062750 17.062750
320  2 0.0000  6.095567 17.062750 21.677947
321  2 0.0000  6.095567 21.677947  3.217161
322  2 0.0000  6.095567 21.677947  7.832357
323  2 0.0000  6.095567 21.677947 12.447554
324  2 0.0000  6.095567 21.677947 17.062750
325  2 0.0000  6.095567 21.677947 21.677947
326  2 0.0000  9.143351  3.217161  3.217161
327  2 0.0000  9.143351  3.217161  7.832357
328  2 0.0000  9.143351  3.217161 12.447554
329  2 0.0000  9.143351  3.217161 17.062750
330  2 0.0000  9.143351  3.217161 21.677947
331  2 0.0000  9.143351  7.832357  3.217161
332  2 0.0000  9.143351  7.832357  7.832357
333  2 0.0000  9.143351  7.832357 12.447554
334  2 0.0000  9.143351  7.832357 17.062750
335  2 0.0000  9.143351  7.832357 21.677947
336  2 0.0000  9.143351 12.447554  3.217161
337  2 0.0000  9.143351 12.447554  7.832357
338  2 0.0000  9.143351 12.447554 12.447554
339  2 0.0000  9.143351 12.447554 17.062750
340  2 0.0000  9.143351 12.447554 21.677947
341  2 0.0000  9.143351 17.062750  3.217161
342  2 0.0000  9.143351 17.062750  7.832357
343  2 0.0000  9.143351 17.062750 12.447554
344  2 0.0000  9.143351 17.062750 17.062750
345  2 0.0000  9.143351 17.062750 21.677947
346  2 0.0000  9.143351 21.677947  3.217161
347  2 0.0000  9.143351 21.677947  7.832357
348  2 0.0000  9.143351 21.677947 12.447554
349  2 0.0000  9.143351 21.677947 17.062750
350  2 0.0000  9.143351 21.677947 21.677947
351  2 0.0000 12.191134  3.217161  3.217161
352  2 0.0000 12.191134  3.217161  7.832357
353  2 0.0000 12.191134  3.217161 12.447554
354  2 0.0000 12.191134  3.217161 17.062750
355  2 0.0000 12.191134  3.217161 21.677947
356  2 0.0000 12.191134  7.832357  3.217161
357  2 0.0000 12.191134  7.832357  7.832357
358  2 0.0000 12.191134  7.832357 12.447554
359  2 0.0000 12.191134  7.832357 17.062750
360  2 0.0000 12.191134  7.832357 21.677947
361  2 0.0000 12.191134 12.447554  3.217161
362  2 0.0000 12.191134 12.447554  7.832357
363  2 0.0000 12.191134 12.447554 12.447554
364  2 0.0000 12.191134 12.447554 17.062750
365  2 0.0000 12.191134 12.447554 21.677947
366  2 0.0000 12.191134 17.062750  3.217161
367  2 0.0000 12.191134 17.062750  7.832357
368  2 0.0000 12.191134 17.062750 12.447554
369  2 0.0000 12.191134 17.062750 17.062750
370  2 0.0000 12.191134 17.062750 21.677947
371  2 0.0000 12.191134 21.677947  3.217161
372  2 0.0000 12.191134 21.677947  7.832357
373  2 0.0000 12.191134 21.677947 12.447554
374  2 0.0000 12.191134 21.677947 17.062750
375  2 0.0000 12.191134 21.677947 21.677947
376  2 0.0000  1.523892  3.705634  0.909562
377  2 0.0000  1.523892  3.705634  5.524759
378  2 0.0000  1.523892  3.705634 10.139956
379  2 0.0000  1.523892  3.705634 14.755152
380  2 0.0000  1.523892  3.705634 19.370349
381  2 0.0000  1.523892  8.320831  0.909562
382  2 0.0000  1.523892  8.320831  5.524759
383  2 0.0000  1.523892  8.320831 10.139956
384  2 0.0000  1.523892  8.320831 14.755152
385  2 0.0000  1.523892  8.320831 19.370349
386  2 0.0000  1.523892 12.936028  0.909562
387  2 0.0000  1.523892 12.936028  5.524759
388  2 0.0000  1.523892 12.936028 10.139956
389  2 0.0000  1.523892 12.936028 14.755152
390  2 0.0000  1.523892 12.936028 19.370349
391  2 0.0000  1.523892 17.551224  0.909562
392  2 0.0000  1.523892 17.551224  5.524759
393  2 0.0000  1.523892 17.551224 10.139956
394  2 0.0000  1.523892 17.551224 14.755152
395  2 0.0000  1.523892 17.551224 19.370349
396  2 0.0000  1.523892 22.166421  0.909562
397  2 0.0000  1.523892 22.166421  5.524759
398  2 0.0000  1.523892 22.166421 10.139956
399  2 0.0000  1.523892 22.166421 14.755152
400  2 0.0000  1.523892 22.166421 19.370349
401  2 0.0000  4.571675  3.705634  0.909562
402  2 0.0000  4.571675  3.705634  5.524759
403  2 0.0000  4.571675  3.705634 10.139956
404  2 0.0000  4.571675  3.705634 14.755152
405  2 0.0000  4.571675  3.705634 19.370349
406  2 0.0000  4.571675  8.320831  0.909562
407  2 0.0000  4.571675  8.320831  5.524759
408  2 0.0000  4.571675  8.320831 10.139956
409  2 0.0000  4.571675  8.320831 14.755152
410  2 0.0000  4.571675  8.320831 19.370349
411  2 0.0000  4.571675 12.936028  0.909562
412  2 0.0000  4.571675 12.936028  5.524759
413  2 0.0000  4.571675 12.936028 10.139956
414  2 0.0000  4.571675 12.936028 14.755152
415  2 0.0000  4.571675 12.936028 19.370349
416  2 0.0000  4.571675 17.551224  0.909562
417  2 0.0000  4.571675 17.551224  5.524759
418  2 0.0000  4.571675 17.551224 10.139956
419  2 0.0000  4.571675 17.551224 14.755152
420  2 0.0000  4.571675 17.551224 19.370349
421  2 0.0000  4.571675 22.166421  0.909562
422  2 0.0000  4.571675 22.166421  5.524759
423  2 0.0000  4.571675 22.166421 10.139956
424  2 0.0000  4.571675 22.166421 14.755152
425  2 0.0000  4.571675 22.166421 19.370349
426  2 0.0000  7.619459  3.705634  0.909562
427  2 0.0000  7.619459  3.705634  5.524759
428  2 0.0000  7.619459  3.705634 10.139956
429  2 0.0000  7.619459  3.705634 14.755152
430  2 0.0000  7.619459  3.705634 19.370349
431  2 0.0000  7.619459  8.320831  0.909562
432  2 0.0000  7.619459  8.320831  5.524759
433  2 0.0000  7.619459  8.320831 10.139956
434  2 0.0000  7.619459  8.320831 14.755152
435  2 0.0000  7.619459  8.320831 19.370349
436  2 0.0000  7.619459 12.936028  0.909562
437  2 0.0000  7.619459 12.936028  5.524759
438  2 0.0000  7.619459 12.936028 10.139956
439  2 0.0000  7.619459 12.936028 14.755152
440  2 0.0000  7.619459 12.936028 19.370349
441  2 0.0000  7.619459 17.551224  0.909562
442  2 0.0000  7.619459 17.551224  5.524759
443  2 0.0000  7.619459 17.551224 10.139956
444  2 0.0000  7.619459 17.551224 14.755152
445  2 0.0000  7.619459 17.551224 19.370349
446  2 0.0000  7.619459 22.166421  0.909562
447  2 0.0000  7.619459 22.166421  5.524759
448  2 0.0000  7.619459 22.166421 10.139956
449  2 0.0000  7.619459 22.166421 14.755152
450  2 0.0000  7.619459 22.166421 19.370349
451  2 0.0000 10.667242  3.705634  0.909562
452  2 0.0000 10.667242  3.705634  5.524759
453  2 0.0000 10.667242  3.705634 10.139956
454  2 0.0000 10.667242  3.705634 14.755152
455  2 0.0000 10.667242  3.705634 19.370349
456  2 0.0000 10.667242  8.320831  0.909562
457  2 0.0000 10.667242  8.320831  5.524759
458  2 0.0000 10.667242  8.320831 10.139956
459  2 0.0000 10.667242  8.320831 14.755152
460  2 0.0000 10.667242  8.320831 19.370349
461  2 0.0000 10.667242 12.936028  0.909562
462  2 0.0000 10.667242 12.936028  5.524759
463  2 0.0000 10.667242 12.936028 10.139956
464  2 0.0000 10.667242 12.936028 14.755152
465  2 0.0000 10.667242 12.936028 19.370349
466  2 0.0000 10.667242 17.551224  0.909562
467  2 0.0000 10.667242 17.551224  5.524759
468  2 0.0000 10.667242 17.551224 10.139956
469  2 0.0000 10.667242 17.551224 14.755152
470  2 0.0000 10.667242 17.551224 19.370349
471  2 0.0000 10.667242 22.166421  0.909562
472  2 0.0000 10.667242 22.166421  5.524759
473  2 0.0000 10.667242 22.166421 10.139956
474  2 0.0000 10.667242 22.166421 14.755152
475  2 0.0000 10.667242 22.166421 19.370349
476  2 0.0000 13.715026  3.705634  0.909562
477  2 0.0000 13.715026  3.705634  5.524759
478  2 0.0000 13.715026  3.705634 10.139956
479  2 0.0000 13.715026  3.705634 14.755152
480  2 0.0000 13.715026  3.705634 19.370349
481  2 0.0000 13.715026  8.320831  0.909562
482  2 0.0000 13.715026  8.320831  5.524759
483  2 0.0000 13.715026  8.320831 10.139956
484  2 0.0000 13.715026  8.320831 14.755152
485  2 0.0000 13.715026  8.320831 19.370349
486  2 0.0000 13.715026 12.936028  0.909562
487  2 0.0000 13.715026 12.936028  5.524759
488  2 0.0000 13.715026 12.936028 10.139956
489  2 0.0000 13.715026 12.936028 14.755152
490  2 0.0000 13.715026 12.936028 19.370349
491  2 0.0000 13.715026 17.551224  0.909562
492  2 0.0000 13.715026 17.551224  5.524759
493  2 0.0000 13.715026 17.551224 10.139956
494  2 0.0000 13.715026 17.551224 14.755152
495  2 0.0000 13.715026 17.551224 19.370349
496  2 0.0000 13.715026 22.166421  0.909562
497  2 0.0000 13.715026 22.166421  5.524759
498  2 0.0000 13.715026 22.166421 10.139956
499  2 0.0000 13.715026 22.166421 14.755152
500  2 0.0000 13.715026 22.166421 19.370349
501  2 0.0000  0.000000  1.398036  1.398036
502  2 0.0000  0.000000  1.398036  6.013233
503  2 0.0000  0.000000  1.398036 10.628429
504  2 0.0000  0.000000  1.398036 15.243626
505  2 0.0000  0.000000  1.398036 19.858822
506  2 0.0000  0.000000  6.013233  1.398036
507  2 0.0000  0.000000  6.013233  6.013233
508  2 0.0000  0.000000  6.013233 10.628429
509  2 0.0000  0.000000  6.013233 15.243626
510  2 0.0000  0.000000  6.013233 19.858822
511  2 0.0000  0.000000 10.628429  1.398036
512  2 0.0000  0.000000 10.628429  6.013233
513  2 0.0000  0.000000 10.628429 10.628429
514  2 0.0000  0.000000 10.628429 15.243626
515  2 0.0000  0.000000 10.628429 19.858822
516  2 0.0000  0.000000 15.243626  1.398036
517  2 0.0000  0.000000 15.243626  6.013233
518  2 0.0000  0.000000 15.243626 10.628429
519  2 0.0000  0.000000 15.243626 15.243626
520  2 0.0000  0.000000 15.243626 19.858822
521  2 0.0000  0.000000 19.858822  1.398036
522  2 0.0000  0.000000 19.858822  6.013233
523  2 0.0000  0.000000 19.858822 10.628429
524  2 0.0000  0.000000 19.858822 15.243626
525  2 0.0000  0.000000 19.858822 19.858822
526  2 0.0000  3.047784  1.398036  1.398036
527  2 0.0000  3.047784  1.398036  6.013233
528  2 0.0000  3.047784  1.398036 10.628429
529  2 0.0000  3.047784  1.398036 15.243626
530  2 0.0000  3.047784  1.398036 19.858822
531  2 0.0000  3.047784  6.013233  1.398036
532  2 0.0000  3.047784  6.013233  6.013233
533  2 0.0000  3.047784  6.013233 10.628429
534  2 0.0000  3.047784  6.013233 15.243626
535  2 0.0000  3.047784  6.013233 19.858822
536  2 0.0000  3.047784 10.628429  1.398036
537  2 0.0000  3.047784 10.628429  6.013233
538  2 0.0000  3.047784 10.628429 10.628429
539  2 0.0000  3.047784 10.628429 15.243626
540  2 0.0000  3.047784 10.628429 19.858822
541  2 0.0000  3.047784 15.243626  1.398036
542  2 0.0000  3.047784 15.243626  6.013233
543  2 0.0000  3.047784 15.243626 10.628429
544  2 0.0000  3.047784 15.243626 15.243626
545  2 0.0000  3.047784 15.243626 19.858822
546  2 0.0000  3.047784 19.858822  1.398036
547  2 0.0000  3.047784 19.858822  6.013233
548  2 0.0000  3.047784 19.858822 10.628429
549  2 0.0000  3.047784 19.858822 15.243626
550  2 0.0000  3.047784 19.858822 19.858822
551  2 0.0000  6.095567  1.398036  1.398036
552  2 0.0000  6.095567  1.398036  6.013233
553  2 0.0000  6.095567  1.398036 10.628429
554  2 0.0000  6.095567  1.398036 15.243626
555  2 0.0000  6.095567  1.398036 19.858822
556  2 0.0000  6.095567  6.013233  1.398036
557  2 0.0000  6.095567  6.013233  6.013233
558  2 0.0000  6.095567  6.013233 10.628429
559  2 0.0000  6.095567  6.013233 15.243626
560  2 0.0000  6.095567  6.013233 19.858822
561  2 0.0000  6.095567 10.628429  1.398036
562  2 0.0000  6.095567 10.628429  6.013233
563  2 0.0000  6.095567 10.628429 10.628429
564  2 0.0000  6.095567 10.628429 15.243626
565  2 0.0000  6.095567 10.628429 19.858822
566  2 0.0000  6.095567 15.243626  1.398036
567  2 0.0000  6.095567 15.243626  6.013233
568  2 0.0000  6.095567 15.243626 10.628429
569  2 0.0000  6.095567 15.243626 15.243626
570  2 0.0000  6.095567 15.243626 19.858822
571  2 0.0000  6.095567 19.858822  1.398036
572  2 0.0000  6.095567 19.858822  6.013233
573  2 0.0000  6.095567 19.858822 10.628429
574  2 0.0000  6.095567 19.858822 15.243626
575  2 0.0000  6.095567 19.858822 19.858822
576  2 0.0000  9.143351  1.398036  1.398036
577  2 0.0000  9.143351  1.398036  6.013233
578  2 0.0000  9.143351  1.398036 10.628429
579  2 0.0000  9.143351  1.398036 15.243626
580  2 0.0000  9.143351  1.398036 19.858822
581  2 0.0000  9.143351  6.013233  1.398036
582  2 0.0000  9.143351  6.013233  6.013233
583  2 0.0000  9.143351  6.013233 10.628429
584  2 0.0000  9.143351  6.013233 15.243626
585  2 0.0000  9.143351  6.013233 19.858822
586  2 0.0000  9.143351 10.628429  1.398036
587  2 0.0000  9.143351 10.628429  6.013233
588  2 0.0000  9.143351 10.628429 10.628429
589  2 0.0000  9.143351 10.628429 15.243626
590  2 0.0000  9.143351 10.628429 19.858822
591  2 0.0000  9.143351 15.243626  1.398036
592  2 0.0000  9.143351 15.243626  6.013233
593  2 0.0000  9.143351 15.243626 10.628429
594  2 0.0000  9.143351 15.243626 15.243626
595  2 0.0000  9.143351 15.243626 19.858822
596  2 0.0000  9.143351 19.858822  1.398036
597  2 0.0000  9.143351 19.858822  6.013233
598  2 0.0000  9.143351 19.858822 10.628429
599  2 0.0000  9.143351 19.858822 15.243626
600  2 0.0000  9.143351 19.858822 19.858822
601  2 0.0000 12.191134  1.398036  1.398036
602  2 0.0000 12.191134  1.398036  6.013233
603  2 0.0000 12.191134  1.398036 10.628429
604  2 0.0000 12.191134  1.398036 15.243626
605  2 0.0000 12.191134  1.398036 19.858822
606  2 0.0000 12.191134  6.013233  1.398036
607  2 0.0000 12.191134  6.013233  6.013233
608  2 0.0000 12.191134  6.013233 10.628429
609  2 0.0000 12.191134  6.013233 15.243626
610  2 0.0000 12.191134  6.013233 19.858822
611  2 0.0000 12.191134 10.628429  1.398036
612  2 0.0000 12.191134 10.628429  6.013233
613  2 0.0000 12.191134 10.628429 10.628429
614  2 0.0000 12.191134 10.628429 15.243626
615  2 0.0000 12.191134 10.628429 19.858822
616  2 0.0000 12.191134 15.243626  1.398036
617  2 0.0000 12.191134 15.243626  6.013233
618  2 0.0000 12.191134 15.243626 10.628429
619  2 0.0000 12.191134 15.243626 15.243626
620  2 0.0000 12.191134 15.243626 19.858822
621  2 0.0000 12.191134 19.858822  1.398036
622  2 0.0000 12.191134 19.858822  6.013233
623  2 0.0000 12.191134 19.858822 10.628429
624  2 0.0000 12.191134 19.858822 15.243626
625  2 0.0000 12.191134 19.858822 19.858822
626  2 0.0000  1.523892  0.909562  3.705634
627  2 0.0000  1.523892  0.909562  8.320831
628  2 0.0000  1.523892  0.909562 12.936028
629  2 0.0000  1.523892  0.909562 17.551224
630  2 0.0000  1.523892  0.909562 22.166421
631  2 0.0000  1.523892  5.524759  3.705634
632  2 0.0000  1.523892  5.524759  8.320831
633  2 0.0000  1.523892  5.524759 12.936028
634  2 0.0000  1.523892  5.524759 17.551224
635  2 0.0000  1.523892  5.524759 22.166421
636  2 0.0000  1.523892 10.139956  3.705634
637  2 0.0000  1.523892 10.139956  8.320831
638  2 0.0000  1.523892 10.139956 12.936028
639  2 0.0000  1.523892 10.139956 17.551224
640  2 0.0000  1.523892 10.139956 22.166421
641  2 0.0000  1.523892 14.755152  3.705634
642  2 0.0000  1.523892 14.755152  8.320831
643  2 0.0000  1.523892 14.755152 12.936028
644  2 0.0000  1.523892 14.755152 17.551224
645  2 0.0000  1.523892 14.755152 22.166421
646  2 0.0000  1.523892 19.370349  3.705634
647  2 0.0000  1.523892 19.370349  8.320831
648  2 0.0000  1.523892 19.370349 12.936028
649  2 0.0000  1.523892 19.370349 17.551224
650  2 0.0000  1.523892 19.370349 22.166421
651  2 0.0000  4.571675  0.909562  3.705634
652  2 0.0000  4.571675  0.909562  8.320831
653  2 0.0000  4.571675  0.909562 12.936028
654  2 0.0000  4.571675  0.909562 17.551224
655  2 0.0000  4.571675  0.909562 22.166421
656  2 0.0000  4.571675  5.524759  3.705634
657  2 0.0000  4.571675  5.524759  8.320831
658  2 0.0000  4.571675  5.524759 12.936028
659  2 0.0000  4.571675  5.524759 17.551224
660  2 0.0000  4.571675  5.524759 22.166421
661  2 0.0000  4.571675 10.139956  3.705634
662  2 0.0000  4.571675 10.139956  8.320831
663  2 0.0000  4.571675 10.139956 12.936028
664  2 0.0000  4.571675 10.139956 17.551224
665  2 0.0000  4.571675 10.139956 22.166421
666  2 0.0000  4.571675 14.755152  3.705634
667  2 0.0000  4.571675 14.755152  8.320831
668  2 0.0000  4.571675 14.755152 12.936028
669  2 0.0000  4.571675 14.755152 17.551224
670  2 0.0000  4.571675 14.755152 22.166421
671  2 0.0000  4.571675 19.370349  3.705634
672  2 0.0000  4.571675 19.370349  8.320831
673  2 0.0000  4.571675 19.370349 12.936028
674  2 0.0000  4.571675 19.370349 17.551224
675  2 0.0000  4.571675 19.370349 22.166421
676  2 0.0000  7.619459  0.909562  3.705634
677  2 0.0000  7.619459  0.909562  8.320831
678  2 0.0000  7.619459  0.909562 12.936028
679  2 0.0000  7.619459  0.909562 17.551224
680  2 0.0000  7.619459  0.909562 22.166421
681  2 0.0000  7.619459  5.524759  3.705634
682  2 0.0000  7.619459  5.524759  8.320831
683  2 0.0000  7.619459  5.524759 12.936028
684  2 0.0000  7.619459  5.524759 17.551224
685  2 0.0000  7.619459  5.524759 22.166421
686  2 0.0000  7.619459 10.139956  3.705634
687  2 0.0000  7.619459 10.139956  8.320831
688  2 0.0000  7.619459 10.139956 12.936028
689  2 0.0000  7.619459 10.139956 17.551224
690  2 0.0000  7.619459 10.139956 22.166421
691  2 0.0000  7.619459 14.755152  3.705634
692  2 0.0000  7.619459 14.755152  8.320831
693  2 0.0000  7.619459 14.755152 12.936028
694  2 0.0000  7.619459 14.755152 17.551224
695  2 0.0000  7.619459 14.755152 22.166421
696  2 0.0000  7.619459 19.370349  3.705634
697  2 0.0000  7.619459 19.370349  8.320831
698  2 0.0000  7.619459 19.370349 12.936028
699  2 0.0000  7.619459 19.370349 17.551224
700  2 0.0000  7.619459 19.370349 22.166421
701  2 0.0000 10.667242  0.909562  3.705634
702  2 0.0000 10.667242  0.909562  8.320831
703  2 0.0000 10.667242  0.909562 12.936028
704  2 0.0000 10.667242  0.909562 17.551224
705  2 0.0000 10.667242  0.909562 22.166421
706  2 0.0000 10.667242  5.524759  3.705634
707  2 0.0000 10.667242  5.524759  8.320831
708  2 0.0000 10.667242  5.524759 12.936028
709  2 0.0000 10.667242  5.524759 17.551224
710  2 0.0000 10.667242  5.524759 22.166421
711  2 0.0000 10.667242 10.139956  3.705634
712  2 0.0000 10.667242 10.139956  8.320831
713  2 0.0000 10.667242 10.139956 12.936028
714  2 0.0000 10.667242 10.139956 17.551224
715  2 0.0000 10.667242 10.139956 22.166421
716  2 0.0000 10.667242 14.755152  3.705634
717  2 0.0000 10.667242 14.755152  8.320831
718  2 0.0000 10.667242 14.755152 12.936028
719  2 0.0000 10.667242 14.755152 17.551224
720  2 0.0000 10.667242 14.755152 22.166421
721  2 0.0000 10.667242 19.370349  3.705634
722  2 0.0000 10.667242 19.370349  8.320831
723  2 0.0000 10.667242 19.370349 12.936028
724  2 0.0000 10.667242 19.370349 17.551224
725  2 0.0000 10.667242 19.370349 22.166421
726  2 0.0000 13.715026  0.909562  3.705634
727  2 0.0000 13.715026  0.909562  8.320831
728  2 0.0000 13.715026  0.909562 12.936028
729  2 0.0000 13.715026  0.909562 17.551224
730  2 0.0000 13.715026  0.909562 22.166421
731  2 0.0000 13.715026  5.524759  3.705634
732  2 0.0000 13.715026  5.524759  8.320831
733  2 0.0000 13.715026  5.524759 12.936028
734  2 0.0000 13.715026  5.524759 17.551224
735  2 0.0000 13.715026  5.524759 22.166421
736  2 0.0000 13.715026 10.139956  3.705634
737  2 0.0000 13.715026 10.139956  8.320831
738  2 0.0000 13.715026 10.139956 12.936028
739  2 0.0000 13.715026 10.139956 17.551224
740  2 0.0000 13.715026 10.139956 22.166421
741  2 0.0000 13.715026 14.755152  3.705634
742  2 0.0000 13.715026 14.755152  8.320831
743  2 0.0000 13.715026 14.755152 12.936028
744  2 0.0000 13.715026 14.755152 17.551224
745  2 0.0000 13.715026 14.755152 22.166421
746  2 0.0000 13.715026 19.370349  3.705634
747  2 0.0000 13.715026 19.370349  8.320831
748  2 0.0000 13.715026 19.370349 12.936028
749  2 0.0000 13.715026 19.370349 17.551224
750  2 0.0000 13.715026 19.370349 22.166421

