Generated by pymatgen.io.lammps.data.LammpsData

1000  atoms

   2  atom types

0.000000 20.970014  xlo xhi
0.000000 20.970014  ylo yhi
0.000000 20.970014  zlo zhi

Masses

1  24.3050
2  15.9994

Atoms

1     1 0.0000  0.000000  0.000000  0.000000
2     1 0.0000  0.000000  0.000000  4.194003
3     1 0.0000  0.000000  0.000000  8.388006
4     1 0.0000  0.000000  0.000000 12.582008
5     1 0.0000  0.000000  0.000000 16.776011
6     1 0.0000  0.000000  4.194003  0.000000
7     1 0.0000  0.000000  4.194003  4.194003
8     1 0.0000  0.000000  4.194003  8.388006
9     1 0.0000  0.000000  4.194003 12.582008
10    1 0.0000  0.000000  4.194003 16.776011
11    1 0.0000  0.000000  8.388006  0.000000
12    1 0.0000  0.000000  8.388006  4.194003
13    1 0.0000  0.000000  8.388006  8.388006
14    1 0.0000  0.000000  8.388006 12.582008
15    1 0.0000  0.000000  8.388006 16.776011
16    1 0.0000  0.000000 12.582008  0.000000
17    1 0.0000  0.000000 12.582008  4.194003
18    1 0.0000  0.000000 12.582008  8.388006
19    1 0.0000  0.000000 12.582008 12.582008
20    1 0.0000  0.000000 12.582008 16.776011
21    1 0.0000  0.000000 16.776011  0.000000
22    1 0.0000  0.000000 16.776011  4.194003
23    1 0.0000  0.000000 16.776011  8.388006
24    1 0.0000  0.000000 16.776011 12.582008
25    1 0.0000  0.000000 16.776011 16.776011
26    1 0.0000  4.194003 -0.000000  0.000000
27    1 0.0000  4.194003  0.000000  4.194003
28    1 0.0000  4.194003  0.000000  8.388006
29    1 0.0000  4.194003  0.000000 12.582008
30    1 0.0000  4.194003  0.000000 16.776011
31    1 0.0000  4.194003  4.194003  0.000000
32    1 0.0000  4.194003  4.194003  4.194003
33    1 0.0000  4.194003  4.194003  8.388006
34    1 0.0000  4.194003  4.194003 12.582008
35    1 0.0000  4.194003  4.194003 16.776011
36    1 0.0000  4.194003  8.388006  0.000000
37    1 0.0000  4.194003  8.388006  4.194003
38    1 0.0000  4.194003  8.388006  8.388006
39    1 0.0000  4.194003  8.388006 12.582008
40    1 0.0000  4.194003  8.388006 16.776011
41    1 0.0000  4.194003 12.582008  0.000000
42    1 0.0000  4.194003 12.582008  4.194003
43    1 0.0000  4.194003 12.582008  8.388006
44    1 0.0000  4.194003 12.582008 12.582008
45    1 0.0000  4.194003 12.582008 16.776011
46    1 0.0000  4.194003 16.776011  0.000000
47    1 0.0000  4.194003 16.776011  4.194003
48    1 0.0000  4.194003 16.776011  8.388006
49    1 0.0000  4.194003 16.776011 12.582008
50    1 0.0000  4.194003 16.776011 16.776011
51    1 0.0000  8.388006 -0.000000  0.000000
52    1 0.0000  8.388006  0.000000  4.194003
53    1 0.0000  8.388006  0.000000  8.388006
54    1 0.0000  8.388006  0.000000 12.582008
55    1 0.0000  8.388006  0.000000 16.776011
56    1 0.0000  8.388006  4.194003  0.000000
57    1 0.0000  8.388006  4.194003  4.194003
58    1 0.0000  8.388006  4.194003  8.388006
59    1 0.0000  8.388006  4.194003 12.582008
60    1 0.0000  8.388006  4.194003 16.776011
61    1 0.0000  8.388006  8.388006  0.000000
62    1 0.0000  8.388006  8.388006  4.194003
63    1 0.0000  8.388006  8.388006  8.388006
64    1 0.0000  8.388006  8.388006 12.582008
65    1 0.0000  8.388006  8.388006 16.776011
66    1 0.0000  8.388006 12.582008 -0.000000
67    1 0.0000  8.388006 12.582008  4.194003
68    1 0.0000  8.388006 12.582008  8.388006
69    1 0.0000  8.388006 12.582008 12.582008
70    1 0.0000  8.388006 12.582008 16.776011
71    1 0.0000  8.388006 16.776011  0.000000
72    1 0.0000  8.388006 16.776011  4.194003
73    1 0.0000  8.388006 16.776011  8.388006
74    1 0.0000  8.388006 16.776011 12.582008
75    1 0.0000  8.388006 16.776011 16.776011
76    1 0.0000 12.582008 -0.000000  0.000000
77    1 0.0000 12.582008  0.000000  4.194003
78    1 0.0000 12.582008  0.000000  8.388006
79    1 0.0000 12.582008  0.000000 12.582008
80    1 0.0000 12.582008  0.000000 16.776011
81    1 0.0000 12.582008  4.194003  0.000000
82    1 0.0000 12.582008  4.194003  4.194003
83    1 0.0000 12.582008  4.194003  8.388006
84    1 0.0000 12.582008  4.194003 12.582008
85    1 0.0000 12.582008  4.194003 16.776011
86    1 0.0000 12.582008  8.388006  0.000000
87    1 0.0000 12.582008  8.388006  4.194003
88    1 0.0000 12.582008  8.388006  8.388006
89    1 0.0000 12.582008  8.388006 12.582008
90    1 0.0000 12.582008  8.388006 16.776011
91    1 0.0000 12.582008 12.582008  0.000000
92    1 0.0000 12.582008 12.582008  4.194003
93    1 0.0000 12.582008 12.582008  8.388006
94    1 0.0000 12.582008 12.582008 12.582008
95    1 0.0000 12.582008 12.582008 16.776011
96    1 0.0000 12.582008 16.776011  0.000000
97    1 0.0000 12.582008 16.776011  4.194003
98    1 0.0000 12.582008 16.776011  8.388006
99    1 0.0000 12.582008 16.776011 12.582008
100   1 0.0000 12.582008 16.776011 16.776011
101   1 0.0000 16.776011 -0.000000  0.000000
102   1 0.0000 16.776011  0.000000  4.194003
103   1 0.0000 16.776011  0.000000  8.388006
104   1 0.0000 16.776011  0.000000 12.582008
105   1 0.0000 16.776011  0.000000 16.776011
106   1 0.0000 16.776011  4.194003  0.000000
107   1 0.0000 16.776011  4.194003  4.194003
108   1 0.0000 16.776011  4.194003  8.388006
109   1 0.0000 16.776011  4.194003 12.582008
110   1 0.0000 16.776011  4.194003 16.776011
111   1 0.0000 16.776011  8.388006  0.000000
112   1 0.0000 16.776011  8.388006  4.194003
113   1 0.0000 16.776011  8.388006  8.388006
114   1 0.0000 16.776011  8.388006 12.582008
115   1 0.0000 16.776011  8.388006 16.776011
116   1 0.0000 16.776011 12.582008 -0.000000
117   1 0.0000 16.776011 12.582008  4.194003
118   1 0.0000 16.776011 12.582008  8.388006
119   1 0.0000 16.776011 12.582008 12.582008
120   1 0.0000 16.776011 12.582008 16.776011
121   1 0.0000 16.776011 16.776011  0.000000
122   1 0.0000 16.776011 16.776011  4.194003
123   1 0.0000 16.776011 16.776011  8.388006
124   1 0.0000 16.776011 16.776011 12.582008
125   1 0.0000 16.776011 16.776011 16.776011
126   1 0.0000  0.000000  2.097001  2.097001
127   1 0.0000  0.000000  2.097001  6.291004
128   1 0.0000  0.000000  2.097001 10.485007
129   1 0.0000  0.000000  2.097001 14.679010
130   1 0.0000  0.000000  2.097001 18.873013
131   1 0.0000  0.000000  6.291004  2.097001
132   1 0.0000  0.000000  6.291004  6.291004
133   1 0.0000  0.000000  6.291004 10.485007
134   1 0.0000  0.000000  6.291004 14.679010
135   1 0.0000  0.000000  6.291004 18.873013
136   1 0.0000  0.000000 10.485007  2.097001
137   1 0.0000  0.000000 10.485007  6.291004
138   1 0.0000  0.000000 10.485007 10.485007
139   1 0.0000  0.000000 10.485007 14.679010
140   1 0.0000  0.000000 10.485007 18.873013
141   1 0.0000  0.000000 14.679010  2.097001
142   1 0.0000  0.000000 14.679010  6.291004
143   1 0.0000  0.000000 14.679010 10.485007
144   1 0.0000  0.000000 14.679010 14.679010
145   1 0.0000  0.000000 14.679010 18.873013
146   1 0.0000  0.000000 18.873013  2.097001
147   1 0.0000  0.000000 18.873013  6.291004
148   1 0.0000  0.000000 18.873013 10.485007
149   1 0.0000  0.000000 18.873013 14.679010
150   1 0.0000  0.000000 18.873013 18.873013
151   1 0.0000  4.194003  2.097001  2.097001
152   1 0.0000  4.194003  2.097001  6.291004
153   1 0.0000  4.194003  2.097001 10.485007
154   1 0.0000  4.194003  2.097001 14.679010
155   1 0.0000  4.194003  2.097001 18.873013
156   1 0.0000  4.194003  6.291004  2.097001
157   1 0.0000  4.194003  6.291004  6.291004
158   1 0.0000  4.194003  6.291004 10.485007
159   1 0.0000  4.194003  6.291004 14.679010
160   1 0.0000  4.194003  6.291004 18.873013
161   1 0.0000  4.194003 10.485007  2.097001
162   1 0.0000  4.194003 10.485007  6.291004
163   1 0.0000  4.194003 10.485007 10.485007
164   1 0.0000  4.194003 10.485007 14.679010
165   1 0.0000  4.194003 10.485007 18.873013
166   1 0.0000  4.194003 14.679010  2.097001
167   1 0.0000  4.194003 14.679010  6.291004
168   1 0.0000  4.194003 14.679010 10.485007
169   1 0.0000  4.194003 14.679010 14.679010
170   1 0.0000  4.194003 14.679010 18.873013
171   1 0.0000  4.194003 18.873013  2.097001
172   1 0.0000  4.194003 18.873013  6.291004
173   1 0.0000  4.194003 18.873013 10.485007
174   1 0.0000  4.194003 18.873013 14.679010
175   1 0.0000  4.194003 18.873013 18.873013
176   1 0.0000  8.388006  2.097001  2.097001
177   1 0.0000  8.388006  2.097001  6.291004
178   1 0.0000  8.388006  2.097001 10.485007
179   1 0.0000  8.388006  2.097001 14.679010
180   1 0.0000  8.388006  2.097001 18.873013
181   1 0.0000  8.388006  6.291004  2.097001
182   1 0.0000  8.388006  6.291004  6.291004
183   1 0.0000  8.388006  6.291004 10.485007
184   1 0.0000  8.388006  6.291004 14.679010
185   1 0.0000  8.388006  6.291004 18.873013
186   1 0.0000  8.388006 10.485007  2.097001
187   1 0.0000  8.388006 10.485007  6.291004
188   1 0.0000  8.388006 10.485007 10.485007
189   1 0.0000  8.388006 10.485007 14.679010
190   1 0.0000  8.388006 10.485007 18.873013
191   1 0.0000  8.388006 14.679010  2.097001
192   1 0.0000  8.388006 14.679010  6.291004
193   1 0.0000  8.388006 14.679010 10.485007
194   1 0.0000  8.388006 14.679010 14.679010
195   1 0.0000  8.388006 14.679010 18.873013
196   1 0.0000  8.388006 18.873013  2.097001
197   1 0.0000  8.388006 18.873013  6.291004
198   1 0.0000  8.388006 18.873013 10.485007
199   1 0.0000  8.388006 18.873013 14.679010
200   1 0.0000  8.388006 18.873013 18.873013
201   1 0.0000 12.582008  2.097001  2.097001
202   1 0.0000 12.582008  2.097001  6.291004
203   1 0.0000 12.582008  2.097001 10.485007
204   1 0.0000 12.582008  2.097001 14.679010
205   1 0.0000 12.582008  2.097001 18.873013
206   1 0.0000 12.582008  6.291004  2.097001
207   1 0.0000 12.582008  6.291004  6.291004
208   1 0.0000 12.582008  6.291004 10.485007
209   1 0.0000 12.582008  6.291004 14.679010
210   1 0.0000 12.582008  6.291004 18.873013
211   1 0.0000 12.582008 10.485007  2.097001
212   1 0.0000 12.582008 10.485007  6.291004
213   1 0.0000 12.582008 10.485007 10.485007
214   1 0.0000 12.582008 10.485007 14.679010
215   1 0.0000 12.582008 10.485007 18.873013
216   1 0.0000 12.582008 14.679010  2.097001
217   1 0.0000 12.582008 14.679010  6.291004
218   1 0.0000 12.582008 14.679010 10.485007
219   1 0.0000 12.582008 14.679010 14.679010
220   1 0.0000 12.582008 14.679010 18.873013
221   1 0.0000 12.582008 18.873013  2.097001
222   1 0.0000 12.582008 18.873013  6.291004
223   1 0.0000 12.582008 18.873013 10.485007
224   1 0.0000 12.582008 18.873013 14.679010
225   1 0.0000 12.582008 18.873013 18.873013
226   1 0.0000 16.776011  2.097001  2.097001
227   1 0.0000 16.776011  2.097001  6.291004
228   1 0.0000 16.776011  2.097001 10.485007
229   1 0.0000 16.776011  2.097001 14.679010
230   1 0.0000 16.776011  2.097001 18.873013
231   1 0.0000 16.776011  6.291004  2.097001
232   1 0.0000 16.776011  6.291004  6.291004
233   1 0.0000 16.776011  6.291004 10.485007
234   1 0.0000 16.776011  6.291004 14.679010
235   1 0.0000 16.776011  6.291004 18.873013
236   1 0.0000 16.776011 10.485007  2.097001
237   1 0.0000 16.776011 10.485007  6.291004
238   1 0.0000 16.776011 10.485007 10.485007
239   1 0.0000 16.776011 10.485007 14.679010
240   1 0.0000 16.776011 10.485007 18.873013
241   1 0.0000 16.776011 14.679010  2.097001
242   1 0.0000 16.776011 14.679010  6.291004
243   1 0.0000 16.776011 14.679010 10.485007
244   1 0.0000 16.776011 14.679010 14.679010
245   1 0.0000 16.776011 14.679010 18.873013
246   1 0.0000 16.776011 18.873013  2.097001
247   1 0.0000 16.776011 18.873013  6.291004
248   1 0.0000 16.776011 18.873013 10.485007
249   1 0.0000 16.776011 18.873013 14.679010
250   1 0.0000 16.776011 18.873013 18.873013
251   1 0.0000  2.097001  0.000000  2.097001
252   1 0.0000  2.097001  0.000000  6.291004
253   1 0.0000  2.097001  0.000000 10.485007
254   1 0.0000  2.097001  0.000000 14.679010
255   1 0.0000  2.097001  0.000000 18.873013
256   1 0.0000  2.097001  4.194003  2.097001
257   1 0.0000  2.097001  4.194003  6.291004
258   1 0.0000  2.097001  4.194003 10.485007
259   1 0.0000  2.097001  4.194003 14.679010
260   1 0.0000  2.097001  4.194003 18.873013
261   1 0.0000  2.097001  8.388006  2.097001
262   1 0.0000  2.097001  8.388006  6.291004
263   1 0.0000  2.097001  8.388006 10.485007
264   1 0.0000  2.097001  8.388006 14.679010
265   1 0.0000  2.097001  8.388006 18.873013
266   1 0.0000  2.097001 12.582008  2.097001
267   1 0.0000  2.097001 12.582008  6.291004
268   1 0.0000  2.097001 12.582008 10.485007
269   1 0.0000  2.097001 12.582008 14.679010
270   1 0.0000  2.097001 12.582008 18.873013
271   1 0.0000  2.097001 16.776011  2.097001
272   1 0.0000  2.097001 16.776011  6.291004
273   1 0.0000  2.097001 16.776011 10.485007
274   1 0.0000  2.097001 16.776011 14.679010
275   1 0.0000  2.097001 16.776011 18.873013
276   1 0.0000  6.291004  0.000000  2.097001
277   1 0.0000  6.291004  0.000000  6.291004
278   1 0.0000  6.291004  0.000000 10.485007
279   1 0.0000  6.291004  0.000000 14.679010
280   1 0.0000  6.291004  0.000000 18.873013
281   1 0.0000  6.291004  4.194003  2.097001
282   1 0.0000  6.291004  4.194003  6.291004
283   1 0.0000  6.291004  4.194003 10.485007
284   1 0.0000  6.291004  4.194003 14.679010
285   1 0.0000  6.291004  4.194003 18.873013
286   1 0.0000  6.291004  8.388006  2.097001
287   1 0.0000  6.291004  8.388006  6.291004
288   1 0.0000  6.291004  8.388006 10.485007
289   1 0.0000  6.291004  8.388006 14.679010
290   1 0.0000  6.291004  8.388006 18.873013
291   1 0.0000  6.291004 12.582008  2.097001
292   1 0.0000  6.291004 12.582008  6.291004
293   1 0.0000  6.291004 12.582008 10.485007
294   1 0.0000  6.291004 12.582008 14.679010
295   1 0.0000  6.291004 12.582008 18.873013
296   1 0.0000  6.291004 16.776011  2.097001
297   1 0.0000  6.291004 16.776011  6.291004
298   1 0.0000  6.291004 16.776011 10.485007
299   1 0.0000  6.291004 16.776011 14.679010
300   1 0.0000  6.291004 16.776011 18.873013
301   1 0.0000 10.485007  0.000000  2.097001
302   1 0.0000 10.485007  0.000000  6.291004
303   1 0.0000 10.485007  0.000000 10.485007
304   1 0.0000 10.485007  0.000000 14.679010
305   1 0.0000 10.485007  0.000000 18.873013
306   1 0.0000 10.485007  4.194003  2.097001
307   1 0.0000 10.485007  4.194003  6.291004
308   1 0.0000 10.485007  4.194003 10.485007
309   1 0.0000 10.485007  4.194003 14.679010
310   1 0.0000 10.485007  4.194003 18.873013
311   1 0.0000 10.485007  8.388006  2.097001
312   1 0.0000 10.485007  8.388006  6.291004
313   1 0.0000 10.485007  8.388006 10.485007
314   1 0.0000 10.485007  8.388006 14.679010
315   1 0.0000 10.485007  8.388006 18.873013
316   1 0.0000 10.485007 12.582008  2.097001
317   1 0.0000 10.485007 12.582008  6.291004
318   1 0.0000 10.485007 12.582008 10.485007
319   1 0.0000 10.485007 12.582008 14.679010
320   1 0.0000 10.485007 12.582008 18.873013
321   1 0.0000 10.485007 16.776011  2.097001
322   1 0.0000 10.485007 16.776011  6.291004
323   1 0.0000 10.485007 16.776011 10.485007
324   1 0.0000 10.485007 16.776011 14.679010
325   1 0.0000 10.485007 16.776011 18.873013
326   1 0.0000 14.679010  0.000000  2.097001
327   1 0.0000 14.679010  0.000000  6.291004
328   1 0.0000 14.679010  0.000000 10.485007
329   1 0.0000 14.679010  0.000000 14.679010
330   1 0.0000 14.679010  0.000000 18.873013
331   1 0.0000 14.679010  4.194003  2.097001
332   1 0.0000 14.679010  4.194003  6.291004
333   1 0.0000 14.679010  4.194003 10.485007
334   1 0.0000 14.679010  4.194003 14.679010
335   1 0.0000 14.679010  4.194003 18.873013
336   1 0.0000 14.679010  8.388006  2.097001
337   1 0.0000 14.679010  8.388006  6.291004
338   1 0.0000 14.679010  8.388006 10.485007
339   1 0.0000 14.679010  8.388006 14.679010
340   1 0.0000 14.679010  8.388006 18.873013
341   1 0.0000 14.679010 12.582008  2.097001
342   1 0.0000 14.679010 12.582008  6.291004
343   1 0.0000 14.679010 12.582008 10.485007
344   1 0.0000 14.679010 12.582008 14.679010
345   1 0.0000 14.679010 12.582008 18.873013
346   1 0.0000 14.679010 16.776011  2.097001
347   1 0.0000 14.679010 16.776011  6.291004
348   1 0.0000 14.679010 16.776011 10.485007
349   1 0.0000 14.679010 16.776011 14.679010
350   1 0.0000 14.679010 16.776011 18.873013
351   1 0.0000 18.873013  0.000000  2.097001
352   1 0.0000 18.873013  0.000000  6.291004
353   1 0.0000 18.873013  0.000000 10.485007
354   1 0.0000 18.873013  0.000000 14.679010
355   1 0.0000 18.873013  0.000000 18.873013
356   1 0.0000 18.873013  4.194003  2.097001
357   1 0.0000 18.873013  4.194003  6.291004
358   1 0.0000 18.873013  4.194003 10.485007
359   1 0.0000 18.873013  4.194003 14.679010
360   1 0.0000 18.873013  4.194003 18.873013
361   1 0.0000 18.873013  8.388006  2.097001
362   1 0.0000 18.873013  8.388006  6.291004
363   1 0.0000 18.873013  8.388006 10.485007
364   1 0.0000 18.873013  8.388006 14.679010
365   1 0.0000 18.873013  8.388006 18.873013
366   1 0.0000 18.873013 12.582008  2.097001
367   1 0.0000 18.873013 12.582008  6.291004
368   1 0.0000 18.873013 12.582008 10.485007
369   1 0.0000 18.873013 12.582008 14.679010
370   1 0.0000 18.873013 12.582008 18.873013
371   1 0.0000 18.873013 16.776011  2.097001
372   1 0.0000 18.873013 16.776011  6.291004
373   1 0.0000 18.873013 16.776011 10.485007
374   1 0.0000 18.873013 16.776011 14.679010
375   1 0.0000 18.873013 16.776011 18.873013
376   1 0.0000  2.097001  2.097001  0.000000
377   1 0.0000  2.097001  2.097001  4.194003
378   1 0.0000  2.097001  2.097001  8.388006
379   1 0.0000  2.097001  2.097001 12.582008
380   1 0.0000  2.097001  2.097001 16.776011
381   1 0.0000  2.097001  6.291004  0.000000
382   1 0.0000  2.097001  6.291004  4.194003
383   1 0.0000  2.097001  6.291004  8.388006
384   1 0.0000  2.097001  6.291004 12.582008
385   1 0.0000  2.097001  6.291004 16.776011
386   1 0.0000  2.097001 10.485007  0.000000
387   1 0.0000  2.097001 10.485007  4.194003
388   1 0.0000  2.097001 10.485007  8.388006
389   1 0.0000  2.097001 10.485007 12.582008
390   1 0.0000  2.097001 10.485007 16.776011
391   1 0.0000  2.097001 14.679010  0.000000
392   1 0.0000  2.097001 14.679010  4.194003
393   1 0.0000  2.097001 14.679010  8.388006
394   1 0.0000  2.097001 14.679010 12.582008
395   1 0.0000  2.097001 14.679010 16.776011
396   1 0.0000  2.097001 18.873013  0.000000
397   1 0.0000  2.097001 18.873013  4.194003
398   1 0.0000  2.097001 18.873013  8.388006
399   1 0.0000  2.097001 18.873013 12.582008
400   1 0.0000  2.097001 18.873013 16.776011
401   1 0.0000  6.291004  2.097001  0.000000
402   1 0.0000  6.291004  2.097001  4.194003
403   1 0.0000  6.291004  2.097001  8.388006
404   1 0.0000  6.291004  2.097001 12.582008
405   1 0.0000  6.291004  2.097001 16.776011
406   1 0.0000  6.291004  6.291004  0.000000
407   1 0.0000  6.291004  6.291004  4.194003
408   1 0.0000  6.291004  6.291004  8.388006
409   1 0.0000  6.291004  6.291004 12.582008
410   1 0.0000  6.291004  6.291004 16.776011
411   1 0.0000  6.291004 10.485007  0.000000
412   1 0.0000  6.291004 10.485007  4.194003
413   1 0.0000  6.291004 10.485007  8.388006
414   1 0.0000  6.291004 10.485007 12.582008
415   1 0.0000  6.291004 10.485007 16.776011
416   1 0.0000  6.291004 14.679010  0.000000
417   1 0.0000  6.291004 14.679010  4.194003
418   1 0.0000  6.291004 14.679010  8.388006
419   1 0.0000  6.291004 14.679010 12.582008
420   1 0.0000  6.291004 14.679010 16.776011
421   1 0.0000  6.291004 18.873013  0.000000
422   1 0.0000  6.291004 18.873013  4.194003
423   1 0.0000  6.291004 18.873013  8.388006
424   1 0.0000  6.291004 18.873013 12.582008
425   1 0.0000  6.291004 18.873013 16.776011
426   1 0.0000 10.485007  2.097001  0.000000
427   1 0.0000 10.485007  2.097001  4.194003
428   1 0.0000 10.485007  2.097001  8.388006
429   1 0.0000 10.485007  2.097001 12.582008
430   1 0.0000 10.485007  2.097001 16.776011
431   1 0.0000 10.485007  6.291004  0.000000
432   1 0.0000 10.485007  6.291004  4.194003
433   1 0.0000 10.485007  6.291004  8.388006
434   1 0.0000 10.485007  6.291004 12.582008
435   1 0.0000 10.485007  6.291004 16.776011
436   1 0.0000 10.485007 10.485007  0.000000
437   1 0.0000 10.485007 10.485007  4.194003
438   1 0.0000 10.485007 10.485007  8.388006
439   1 0.0000 10.485007 10.485007 12.582008
440   1 0.0000 10.485007 10.485007 16.776011
441   1 0.0000 10.485007 14.679010  0.000000
442   1 0.0000 10.485007 14.679010  4.194003
443   1 0.0000 10.485007 14.679010  8.388006
444   1 0.0000 10.485007 14.679010 12.582008
445   1 0.0000 10.485007 14.679010 16.776011
446   1 0.0000 10.485007 18.873013 -0.000000
447   1 0.0000 10.485007 18.873013  4.194003
448   1 0.0000 10.485007 18.873013  8.388006
449   1 0.0000 10.485007 18.873013 12.582008
450   1 0.0000 10.485007 18.873013 16.776011
451   1 0.0000 14.679010  2.097001 -0.000000
452   1 0.0000 14.679010  2.097001  4.194003
453   1 0.0000 14.679010  2.097001  8.388006
454   1 0.0000 14.679010  2.097001 12.582008
455   1 0.0000 14.679010  2.097001 16.776011
456   1 0.0000 14.679010  6.291004  0.000000
457   1 0.0000 14.679010  6.291004  4.194003
458   1 0.0000 14.679010  6.291004  8.388006
459   1 0.0000 14.679010  6.291004 12.582008
460   1 0.0000 14.679010  6.291004 16.776011
461   1 0.0000 14.679010 10.485007  0.000000
462   1 0.0000 14.679010 10.485007  4.194003
463   1 0.0000 14.679010 10.485007  8.388006
464   1 0.0000 14.679010 10.485007 12.582008
465   1 0.0000 14.679010 10.485007 16.776011
466   1 0.0000 14.679010 14.679010 -0.000000
467   1 0.0000 14.679010 14.679010  4.194003
468   1 0.0000 14.679010 14.679010  8.388006
469   1 0.0000 14.679010 14.679010 12.582008
470   1 0.0000 14.679010 14.679010 16.776011
471   1 0.0000 14.679010 18.873013  0.000000
472   1 0.0000 14.679010 18.873013  4.194003
473   1 0.0000 14.679010 18.873013  8.388006
474   1 0.0000 14.679010 18.873013 12.582008
475   1 0.0000 14.679010 18.873013 16.776011
476   1 0.0000 18.873013  2.097001 -0.000000
477   1 0.0000 18.873013  2.097001  4.194003
478   1 0.0000 18.873013  2.097001  8.388006
479   1 0.0000 18.873013  2.097001 12.582008
480   1 0.0000 18.873013  2.097001 16.776011
481   1 0.0000 18.873013  6.291004  0.000000
482   1 0.0000 18.873013  6.291004  4.194003
483   1 0.0000 18.873013  6.291004  8.388006
484   1 0.0000 18.873013  6.291004 12.582008
485   1 0.0000 18.873013  6.291004 16.776011
486   1 0.0000 18.873013 10.485007  0.000000
487   1 0.0000 18.873013 10.485007  4.194003
488   1 0.0000 18.873013 10.485007  8.388006
489   1 0.0000 18.873013 10.485007 12.582008
490   1 0.0000 18.873013 10.485007 16.776011
491   1 0.0000 18.873013 14.679010 -0.000000
492   1 0.0000 18.873013 14.679010  4.194003
493   1 0.0000 18.873013 14.679010  8.388006
494   1 0.0000 18.873013 14.679010 12.582008
495   1 0.0000 18.873013 14.679010 16.776011
496   1 0.0000 18.873013 18.873013 -0.000000
497   1 0.0000 18.873013 18.873013  4.194003
498   1 0.0000 18.873013 18.873013  8.388006
499   1 0.0000 18.873013 18.873013 12.582008
500   1 0.0000 18.873013 18.873013 16.776011
501   2 0.0000  0.000000  0.000000  2.097001
502   2 0.0000  0.000000  0.000000  6.291004
503   2 0.0000  0.000000  0.000000 10.485007
504   2 0.0000  0.000000  0.000000 14.679010
505   2 0.0000  0.000000  0.000000 18.873013
506   2 0.0000  0.000000  4.194003  2.097001
507   2 0.0000  0.000000  4.194003  6.291004
508   2 0.0000  0.000000  4.194003 10.485007
509   2 0.0000  0.000000  4.194003 14.679010
510   2 0.0000  0.000000  4.194003 18.873013
511   2 0.0000  0.000000  8.388006  2.097001
512   2 0.0000  0.000000  8.388006  6.291004
513   2 0.0000  0.000000  8.388006 10.485007
514   2 0.0000  0.000000  8.388006 14.679010
515   2 0.0000  0.000000  8.388006 18.873013
516   2 0.0000  0.000000 12.582008  2.097001
517   2 0.0000  0.000000 12.582008  6.291004
518   2 0.0000  0.000000 12.582008 10.485007
519   2 0.0000  0.000000 12.582008 14.679010
520   2 0.0000  0.000000 12.582008 18.873013
521   2 0.0000  0.000000 16.776011  2.097001
522   2 0.0000  0.000000 16.776011  6.291004
523   2 0.0000  0.000000 16.776011 10.485007
524   2 0.0000  0.000000 16.776011 14.679010
525   2 0.0000  0.000000 16.776011 18.873013
526   2 0.0000  4.194003  0.000000  2.097001
527   2 0.0000  4.194003  0.000000  6.291004
528   2 0.0000  4.194003  0.000000 10.485007
529   2 0.0000  4.194003  0.000000 14.679010
530   2 0.0000  4.194003  0.000000 18.873013
531   2 0.0000  4.194003  4.194003  2.097001
532   2 0.0000  4.194003  4.194003  6.291004
533   2 0.0000  4.194003  4.194003 10.485007
534   2 0.0000  4.194003  4.194003 14.679010
535   2 0.0000  4.194003  4.194003 18.873013
536   2 0.0000  4.194003  8.388006  2.097001
537   2 0.0000  4.194003  8.388006  6.291004
538   2 0.0000  4.194003  8.388006 10.485007
539   2 0.0000  4.194003  8.388006 14.679010
540   2 0.0000  4.194003  8.388006 18.873013
541   2 0.0000  4.194003 12.582008  2.097001
542   2 0.0000  4.194003 12.582008  6.291004
543   2 0.0000  4.194003 12.582008 10.485007
544   2 0.0000  4.194003 12.582008 14.679010
545   2 0.0000  4.194003 12.582008 18.873013
546   2 0.0000  4.194003 16.776011  2.097001
547   2 0.0000  4.194003 16.776011  6.291004
548   2 0.0000  4.194003 16.776011 10.485007
549   2 0.0000  4.194003 16.776011 14.679010
550   2 0.0000  4.194003 16.776011 18.873013
551   2 0.0000  8.388006  0.000000  2.097001
552   2 0.0000  8.388006  0.000000  6.291004
553   2 0.0000  8.388006  0.000000 10.485007
554   2 0.0000  8.388006  0.000000 14.679010
555   2 0.0000  8.388006  0.000000 18.873013
556   2 0.0000  8.388006  4.194003  2.097001
557   2 0.0000  8.388006  4.194003  6.291004
558   2 0.0000  8.388006  4.194003 10.485007
559   2 0.0000  8.388006  4.194003 14.679010
560   2 0.0000  8.388006  4.194003 18.873013
561   2 0.0000  8.388006  8.388006  2.097001
562   2 0.0000  8.388006  8.388006  6.291004
563   2 0.0000  8.388006  8.388006 10.485007
564   2 0.0000  8.388006  8.388006 14.679010
565   2 0.0000  8.388006  8.388006 18.873013
566   2 0.0000  8.388006 12.582008  2.097001
567   2 0.0000  8.388006 12.582008  6.291004
568   2 0.0000  8.388006 12.582008 10.485007
569   2 0.0000  8.388006 12.582008 14.679010
570   2 0.0000  8.388006 12.582008 18.873013
571   2 0.0000  8.388006 16.776011  2.097001
572   2 0.0000  8.388006 16.776011  6.291004
573   2 0.0000  8.388006 16.776011 10.485007
574   2 0.0000  8.388006 16.776011 14.679010
575   2 0.0000  8.388006 16.776011 18.873013
576   2 0.0000 12.582008  0.000000  2.097001
577   2 0.0000 12.582008  0.000000  6.291004
578   2 0.0000 12.582008  0.000000 10.485007
579   2 0.0000 12.582008  0.000000 14.679010
580   2 0.0000 12.582008  0.000000 18.873013
581   2 0.0000 12.582008  4.194003  2.097001
582   2 0.0000 12.582008  4.194003  6.291004
583   2 0.0000 12.582008  4.194003 10.485007
584   2 0.0000 12.582008  4.194003 14.679010
585   2 0.0000 12.582008  4.194003 18.873013
586   2 0.0000 12.582008  8.388006  2.097001
587   2 0.0000 12.582008  8.388006  6.291004
588   2 0.0000 12.582008  8.388006 10.485007
589   2 0.0000 12.582008  8.388006 14.679010
590   2 0.0000 12.582008  8.388006 18.873013
591   2 0.0000 12.582008 12.582008  2.097001
592   2 0.0000 12.582008 12.582008  6.291004
593   2 0.0000 12.582008 12.582008 10.485007
594   2 0.0000 12.582008 12.582008 14.679010
595   2 0.0000 12.582008 12.582008 18.873013
596   2 0.0000 12.582008 16.776011  2.097001
597   2 0.0000 12.582008 16.776011  6.291004
598   2 0.0000 12.582008 16.776011 10.485007
599   2 0.0000 12.582008 16.776011 14.679010
600   2 0.0000 12.582008 16.776011 18.873013
601   2 0.0000 16.776011  0.000000  2.097001
602   2 0.0000 16.776011  0.000000  6.291004
603   2 0.0000 16.776011  0.000000 10.485007
604   2 0.0000 16.776011  0.000000 14.679010
605   2 0.0000 16.776011  0.000000 18.873013
606   2 0.0000 16.776011  4.194003  2.097001
607   2 0.0000 16.776011  4.194003  6.291004
608   2 0.0000 16.776011  4.194003 10.485007
609   2 0.0000 16.776011  4.194003 14.679010
610   2 0.0000 16.776011  4.194003 18.873013
611   2 0.0000 16.776011  8.388006  2.097001
612   2 0.0000 16.776011  8.388006  6.291004
613   2 0.0000 16.776011  8.388006 10.485007
614   2 0.0000 16.776011  8.388006 14.679010
615   2 0.0000 16.776011  8.388006 18.873013
616   2 0.0000 16.776011 12.582008  2.097001
617   2 0.0000 16.776011 12.582008  6.291004
618   2 0.0000 16.776011 12.582008 10.485007
619   2 0.0000 16.776011 12.582008 14.679010
620   2 0.0000 16.776011 12.582008 18.873013
621   2 0.0000 16.776011 16.776011  2.097001
622   2 0.0000 16.776011 16.776011  6.291004
623   2 0.0000 16.776011 16.776011 10.485007
624   2 0.0000 16.776011 16.776011 14.679010
625   2 0.0000 16.776011 16.776011 18.873013
626   2 0.0000  0.000000  2.097001  0.000000
627   2 0.0000  0.000000  2.097001  4.194003
628   2 0.0000  0.000000  2.097001  8.388006
629   2 0.0000  0.000000  2.097001 12.582008
630   2 0.0000  0.000000  2.097001 16.776011
631   2 0.0000  0.000000  6.291004  0.000000
632   2 0.0000  0.000000  6.291004  4.194003
633   2 0.0000  0.000000  6.291004  8.388006
634   2 0.0000  0.000000  6.291004 12.582008
635   2 0.0000  0.000000  6.291004 16.776011
636   2 0.0000  0.000000 10.485007  0.000000
637   2 0.0000  0.000000 10.485007  4.194003
638   2 0.0000  0.000000 10.485007  8.388006
639   2 0.0000  0.000000 10.485007 12.582008
640   2 0.0000  0.000000 10.485007 16.776011
641   2 0.0000  0.000000 14.679010 -0.000000
642   2 0.0000  0.000000 14.679010  4.194003
643   2 0.0000  0.000000 14.679010  8.388006
644   2 0.0000  0.000000 14.679010 12.582008
645   2 0.0000  0.000000 14.679010 16.776011
646   2 0.0000  0.000000 18.873013  0.000000
647   2 0.0000  0.000000 18.873013  4.194003
648   2 0.0000  0.000000 18.873013  8.388006
649   2 0.0000  0.000000 18.873013 12.582008
650   2 0.0000  0.000000 18.873013 16.776011
651   2 0.0000  4.194003  2.097001  0.000000
652   2 0.0000  4.194003  2.097001  4.194003
653   2 0.0000  4.194003  2.097001  8.388006
654   2 0.0000  4.194003  2.097001 12.582008
655   2 0.0000  4.194003  2.097001 16.776011
656   2 0.0000  4.194003  6.291004  0.000000
657   2 0.0000  4.194003  6.291004  4.194003
658   2 0.0000  4.194003  6.291004  8.388006
659   2 0.0000  4.194003  6.291004 12.582008
660   2 0.0000  4.194003  6.291004 16.776011
661   2 0.0000  4.194003 10.485007  0.000000
662   2 0.0000  4.194003 10.485007  4.194003
663   2 0.0000  4.194003 10.485007  8.388006
664   2 0.0000  4.194003 10.485007 12.582008
665   2 0.0000  4.194003 10.485007 16.776011
666   2 0.0000  4.194003 14.679010 -0.000000
667   2 0.0000  4.194003 14.679010  4.194003
668   2 0.0000  4.194003 14.679010  8.388006
669   2 0.0000  4.194003 14.679010 12.582008
670   2 0.0000  4.194003 14.679010 16.776011
671   2 0.0000  4.194003 18.873013 -0.000000
672   2 0.0000  4.194003 18.873013  4.194003
673   2 0.0000  4.194003 18.873013  8.388006
674   2 0.0000  4.194003 18.873013 12.582008
675   2 0.0000  4.194003 18.873013 16.776011
676   2 0.0000  8.388006  2.097001  0.000000
677   2 0.0000  8.388006  2.097001  4.194003
678   2 0.0000  8.388006  2.097001  8.388006
679   2 0.0000  8.388006  2.097001 12.582008
680   2 0.0000  8.388006  2.097001 16.776011
681   2 0.0000  8.388006  6.291004  0.000000
682   2 0.0000  8.388006  6.291004  4.194003
683   2 0.0000  8.388006  6.291004  8.388006
684   2 0.0000  8.388006  6.291004 12.582008
685   2 0.0000  8.388006  6.291004 16.776011
686   2 0.0000  8.388006 10.485007 -0.000000
687   2 0.0000  8.388006 10.485007  4.194003
688   2 0.0000  8.388006 10.485007  8.388006
689   2 0.0000  8.388006 10.485007 12.582008
690   2 0.0000  8.388006 10.485007 16.776011
691   2 0.0000  8.388006 14.679010  0.000000
692   2 0.0000  8.388006 14.679010  4.194003
693   2 0.0000  8.388006 14.679010  8.388006
694   2 0.0000  8.388006 14.679010 12.582008
695   2 0.0000  8.388006 14.679010 16.776011
696   2 0.0000  8.388006 18.873013 -0.000000
697   2 0.0000  8.388006 18.873013  4.194003
698   2 0.0000  8.388006 18.873013  8.388006
699   2 0.0000  8.388006 18.873013 12.582008
700   2 0.0000  8.388006 18.873013 16.776011
701   2 0.0000 12.582008  2.097001 -0.000000
702   2 0.0000 12.582008  2.097001  4.194003
703   2 0.0000 12.582008  2.097001  8.388006
704   2 0.0000 12.582008  2.097001 12.582008
705   2 0.0000 12.582008  2.097001 16.776011
706   2 0.0000 12.582008  6.291004 -0.000000
707   2 0.0000 12.582008  6.291004  4.194003
708   2 0.0000 12.582008  6.291004  8.388006
709   2 0.0000 12.582008  6.291004 12.582008
710   2 0.0000 12.582008  6.291004 16.776011
711   2 0.0000 12.582008 10.485007  0.000000
712   2 0.0000 12.582008 10.485007  4.194003
713   2 0.0000 12.582008 10.485007  8.388006
714   2 0.0000 12.582008 10.485007 12.582008
715   2 0.0000 12.582008 10.485007 16.776011
716   2 0.0000 12.582008 14.679010  0.000000
717   2 0.0000 12.582008 14.679010  4.194003
718   2 0.0000 12.582008 14.679010  8.388006
719   2 0.0000 12.582008 14.679010 12.582008
720   2 0.0000 12.582008 14.679010 16.776011
721   2 0.0000 12.582008 18.873013  0.000000
722   2 0.0000 12.582008 18.873013  4.194003
723   2 0.0000 12.582008 18.873013  8.388006
724   2 0.0000 12.582008 18.873013 12.582008
725   2 0.0000 12.582008 18.873013 16.776011
726   2 0.0000 16.776011  2.097001 -0.000000
727   2 0.0000 16.776011  2.097001  4.194003
728   2 0.0000 16.776011  2.097001  8.388006
729   2 0.0000 16.776011  2.097001 12.582008
730   2 0.0000 16.776011  2.097001 16.776011
731   2 0.0000 16.776011  6.291004  0.000000
732   2 0.0000 16.776011  6.291004  4.194003
733   2 0.0000 16.776011  6.291004  8.388006
734   2 0.0000 16.776011  6.291004 12.582008
735   2 0.0000 16.776011  6.291004 16.776011
736   2 0.0000 16.776011 10.485007  0.000000
737   2 0.0000 16.776011 10.485007  4.194003
738   2 0.0000 16.776011 10.485007  8.388006
739   2 0.0000 16.776011 10.485007 12.582008
740   2 0.0000 16.776011 10.485007 16.776011
741   2 0.0000 16.776011 14.679010  0.000000
742   2 0.0000 16.776011 14.679010  4.194003
743   2 0.0000 16.776011 14.679010  8.388006
744   2 0.0000 16.776011 14.679010 12.582008
745   2 0.0000 16.776011 14.679010 16.776011
746   2 0.0000 16.776011 18.873013  0.000000
747   2 0.0000 16.776011 18.873013  4.194003
748   2 0.0000 16.776011 18.873013  8.388006
749   2 0.0000 16.776011 18.873013 12.582008
750   2 0.0000 16.776011 18.873013 16.776011
751   2 0.0000  2.097001 -0.000000  0.000000
752   2 0.0000  2.097001  0.000000  4.194003
753   2 0.0000  2.097001  0.000000  8.388006
754   2 0.0000  2.097001  0.000000 12.582008
755   2 0.0000  2.097001  0.000000 16.776011
756   2 0.0000  2.097001  4.194003  0.000000
757   2 0.0000  2.097001  4.194003  4.194003
758   2 0.0000  2.097001  4.194003  8.388006
759   2 0.0000  2.097001  4.194003 12.582008
760   2 0.0000  2.097001  4.194003 16.776011
761   2 0.0000  2.097001  8.388006  0.000000
762   2 0.0000  2.097001  8.388006  4.194003
763   2 0.0000  2.097001  8.388006  8.388006
764   2 0.0000  2.097001  8.388006 12.582008
765   2 0.0000  2.097001  8.388006 16.776011
766   2 0.0000  2.097001 12.582008 -0.000000
767   2 0.0000  2.097001 12.582008  4.194003
768   2 0.0000  2.097001 12.582008  8.388006
769   2 0.0000  2.097001 12.582008 12.582008
770   2 0.0000  2.097001 12.582008 16.776011
771   2 0.0000  2.097001 16.776011  0.000000
772   2 0.0000  2.097001 16.776011  4.194003
773   2 0.0000  2.097001 16.776011  8.388006
774   2 0.0000  2.097001 16.776011 12.582008
775   2 0.0000  2.097001 16.776011 16.776011
776   2 0.0000  6.291004 -0.000000  0.000000
777   2 0.0000  6.291004  0.000000  4.194003
778   2 0.0000  6.291004  0.000000  8.388006
779   2 0.0000  6.291004  0.000000 12.582008
780   2 0.0000  6.291004  0.000000 16.776011
781   2 0.0000  6.291004  4.194003  0.000000
782   2 0.0000  6.291004  4.194003  4.194003
783   2 0.0000  6.291004  4.194003  8.388006
784   2 0.0000  6.291004  4.194003 12.582008
785   2 0.0000  6.291004  4.194003 16.776011
786   2 0.0000  6.291004  8.388006  0.000000
787   2 0.0000  6.291004  8.388006  4.194003
788   2 0.0000  6.291004  8.388006  8.388006
789   2 0.0000  6.291004  8.388006 12.582008
790   2 0.0000  6.291004  8.388006 16.776011
791   2 0.0000  6.291004 12.582008 -0.000000
792   2 0.0000  6.291004 12.582008  4.194003
793   2 0.0000  6.291004 12.582008  8.388006
794   2 0.0000  6.291004 12.582008 12.582008
795   2 0.0000  6.291004 12.582008 16.776011
796   2 0.0000  6.291004 16.776011  0.000000
797   2 0.0000  6.291004 16.776011  4.194003
798   2 0.0000  6.291004 16.776011  8.388006
799   2 0.0000  6.291004 16.776011 12.582008
800   2 0.0000  6.291004 16.776011 16.776011
801   2 0.0000 10.485007 -0.000000  0.000000
802   2 0.0000 10.485007  0.000000  4.194003
803   2 0.0000 10.485007  0.000000  8.388006
804   2 0.0000 10.485007  0.000000 12.582008
805   2 0.0000 10.485007  0.000000 16.776011
806   2 0.0000 10.485007  4.194003  0.000000
807   2 0.0000 10.485007  4.194003  4.194003
808   2 0.0000 10.485007  4.194003  8.388006
809   2 0.0000 10.485007  4.194003 12.582008
810   2 0.0000 10.485007  4.194003 16.776011
811   2 0.0000 10.485007  8.388006  0.000000
812   2 0.0000 10.485007  8.388006  4.194003
813   2 0.0000 10.485007  8.388006  8.388006
814   2 0.0000 10.485007  8.388006 12.582008
815   2 0.0000 10.485007  8.388006 16.776011
816   2 0.0000 10.485007 12.582008  0.000000
817   2 0.0000 10.485007 12.582008  4.194003
818   2 0.0000 10.485007 12.582008  8.388006
819   2 0.0000 10.485007 12.582008 12.582008
820   2 0.0000 10.485007 12.582008 16.776011
821   2 0.0000 10.485007 16.776011  0.000000
822   2 0.0000 10.485007 16.776011  4.194003
823   2 0.0000 10.485007 16.776011  8.388006
824   2 0.0000 10.485007 16.776011 12.582008
825   2 0.0000 10.485007 16.776011 16.776011
826   2 0.0000 14.679010 -0.000000 -0.000000
827   2 0.0000 14.679010  0.000000  4.194003
828   2 0.0000 14.679010  0.000000  8.388006
829   2 0.0000 14.679010  0.000000 12.582008
830   2 0.0000 14.679010  0.000000 16.776011
831   2 0.0000 14.679010  4.194003 -0.000000
832   2 0.0000 14.679010  4.194003  4.194003
833   2 0.0000 14.679010  4.194003  8.388006
834   2 0.0000 14.679010  4.194003 12.582008
835   2 0.0000 14.679010  4.194003 16.776011
836   2 0.0000 14.679010  8.388006  0.000000
837   2 0.0000 14.679010  8.388006  4.194003
838   2 0.0000 14.679010  8.388006  8.388006
839   2 0.0000 14.679010  8.388006 12.582008
840   2 0.0000 14.679010  8.388006 16.776011
841   2 0.0000 14.679010 12.582008 -0.000000
842   2 0.0000 14.679010 12.582008  4.194003
843   2 0.0000 14.679010 12.582008  8.388006
844   2 0.0000 14.679010 12.582008 12.582008
845   2 0.0000 14.679010 12.582008 16.776011
846   2 0.0000 14.679010 16.776011  0.000000
847   2 0.0000 14.679010 16.776011  4.194003
848   2 0.0000 14.679010 16.776011  8.388006
849   2 0.0000 14.679010 16.776011 12.582008
850   2 0.0000 14.679010 16.776011 16.776011
851   2 0.0000 18.873013 -0.000000  0.000000
852   2 0.0000 18.873013  0.000000  4.194003
853   2 0.0000 18.873013  0.000000  8.388006
854   2 0.0000 18.873013  0.000000 12.582008
855   2 0.0000 18.873013  0.000000 16.776011
856   2 0.0000 18.873013  4.194003  0.000000
857   2 0.0000 18.873013  4.194003  4.194003
858   2 0.0000 18.873013  4.194003  8.388006
859   2 0.0000 18.873013  4.194003 12.582008
860   2 0.0000 18.873013  4.194003 16.776011
861   2 0.0000 18.873013  8.388006  0.000000
862   2 0.0000 18.873013  8.388006  4.194003
863   2 0.0000 18.873013  8.388006  8.388006
864   2 0.0000 18.873013  8.388006 12.582008
865   2 0.0000 18.873013  8.388006 16.776011
866   2 0.0000 18.873013 12.582008 -0.000000
867   2 0.0000 18.873013 12.582008  4.194003
868   2 0.0000 18.873013 12.582008  8.388006
869   2 0.0000 18.873013 12.582008 12.582008
870   2 0.0000 18.873013 12.582008 16.776011
871   2 0.0000 18.873013 16.776011 -0.000000
872   2 0.0000 18.873013 16.776011  4.194003
873   2 0.0000 18.873013 16.776011  8.388006
874   2 0.0000 18.873013 16.776011 12.582008
875   2 0.0000 18.873013 16.776011 16.776011
876   2 0.0000  2.097001  2.097001  2.097001
877   2 0.0000  2.097001  2.097001  6.291004
878   2 0.0000  2.097001  2.097001 10.485007
879   2 0.0000  2.097001  2.097001 14.679010
880   2 0.0000  2.097001  2.097001 18.873013
881   2 0.0000  2.097001  6.291004  2.097001
882   2 0.0000  2.097001  6.291004  6.291004
883   2 0.0000  2.097001  6.291004 10.485007
884   2 0.0000  2.097001  6.291004 14.679010
885   2 0.0000  2.097001  6.291004 18.873013
886   2 0.0000  2.097001 10.485007  2.097001
887   2 0.0000  2.097001 10.485007  6.291004
888   2 0.0000  2.097001 10.485007 10.485007
889   2 0.0000  2.097001 10.485007 14.679010
890   2 0.0000  2.097001 10.485007 18.873013
891   2 0.0000  2.097001 14.679010  2.097001
892   2 0.0000  2.097001 14.679010  6.291004
893   2 0.0000  2.097001 14.679010 10.485007
894   2 0.0000  2.097001 14.679010 14.679010
895   2 0.0000  2.097001 14.679010 18.873013
896   2 0.0000  2.097001 18.873013  2.097001
897   2 0.0000  2.097001 18.873013  6.291004
898   2 0.0000  2.097001 18.873013 10.485007
899   2 0.0000  2.097001 18.873013 14.679010
900   2 0.0000  2.097001 18.873013 18.873013
901   2 0.0000  6.291004  2.097001  2.097001
902   2 0.0000  6.291004  2.097001  6.291004
903   2 0.0000  6.291004  2.097001 10.485007
904   2 0.0000  6.291004  2.097001 14.679010
905   2 0.0000  6.291004  2.097001 18.873013
906   2 0.0000  6.291004  6.291004  2.097001
907   2 0.0000  6.291004  6.291004  6.291004
908   2 0.0000  6.291004  6.291004 10.485007
909   2 0.0000  6.291004  6.291004 14.679010
910   2 0.0000  6.291004  6.291004 18.873013
911   2 0.0000  6.291004 10.485007  2.097001
912   2 0.0000  6.291004 10.485007  6.291004
913   2 0.0000  6.291004 10.485007 10.485007
914   2 0.0000  6.291004 10.485007 14.679010
915   2 0.0000  6.291004 10.485007 18.873013
916   2 0.0000  6.291004 14.679010  2.097001
917   2 0.0000  6.291004 14.679010  6.291004
918   2 0.0000  6.291004 14.679010 10.485007
919   2 0.0000  6.291004 14.679010 14.679010
920   2 0.0000  6.291004 14.679010 18.873013
921   2 0.0000  6.291004 18.873013  2.097001
922   2 0.0000  6.291004 18.873013  6.291004
923   2 0.0000  6.291004 18.873013 10.485007
924   2 0.0000  6.291004 18.873013 14.679010
925   2 0.0000  6.291004 18.873013 18.873013
926   2 0.0000 10.485007  2.097001  2.097001
927   2 0.0000 10.485007  2.097001  6.291004
928   2 0.0000 10.485007  2.097001 10.485007
929   2 0.0000 10.485007  2.097001 14.679010
930   2 0.0000 10.485007  2.097001 18.873013
931   2 0.0000 10.485007  6.291004  2.097001
932   2 0.0000 10.485007  6.291004  6.291004
933   2 0.0000 10.485007  6.291004 10.485007
934   2 0.0000 10.485007  6.291004 14.679010
935   2 0.0000 10.485007  6.291004 18.873013
936   2 0.0000 10.485007 10.485007  2.097001
937   2 0.0000 10.485007 10.485007  6.291004
938   2 0.0000 10.485007 10.485007 10.485007
939   2 0.0000 10.485007 10.485007 14.679010
940   2 0.0000 10.485007 10.485007 18.873013
941   2 0.0000 10.485007 14.679010  2.097001
942   2 0.0000 10.485007 14.679010  6.291004
943   2 0.0000 10.485007 14.679010 10.485007
944   2 0.0000 10.485007 14.679010 14.679010
945   2 0.0000 10.485007 14.679010 18.873013
946   2 0.0000 10.485007 18.873013  2.097001
947   2 0.0000 10.485007 18.873013  6.291004
948   2 0.0000 10.485007 18.873013 10.485007
949   2 0.0000 10.485007 18.873013 14.679010
950   2 0.0000 10.485007 18.873013 18.873013
951   2 0.0000 14.679010  2.097001  2.097001
952   2 0.0000 14.679010  2.097001  6.291004
953   2 0.0000 14.679010  2.097001 10.485007
954   2 0.0000 14.679010  2.097001 14.679010
955   2 0.0000 14.679010  2.097001 18.873013
956   2 0.0000 14.679010  6.291004  2.097001
957   2 0.0000 14.679010  6.291004  6.291004
958   2 0.0000 14.679010  6.291004 10.485007
959   2 0.0000 14.679010  6.291004 14.679010
960   2 0.0000 14.679010  6.291004 18.873013
961   2 0.0000 14.679010 10.485007  2.097001
962   2 0.0000 14.679010 10.485007  6.291004
963   2 0.0000 14.679010 10.485007 10.485007
964   2 0.0000 14.679010 10.485007 14.679010
965   2 0.0000 14.679010 10.485007 18.873013
966   2 0.0000 14.679010 14.679010  2.097001
967   2 0.0000 14.679010 14.679010  6.291004
968   2 0.0000 14.679010 14.679010 10.485007
969   2 0.0000 14.679010 14.679010 14.679010
970   2 0.0000 14.679010 14.679010 18.873013
971   2 0.0000 14.679010 18.873013  2.097001
972   2 0.0000 14.679010 18.873013  6.291004
973   2 0.0000 14.679010 18.873013 10.485007
974   2 0.0000 14.679010 18.873013 14.679010
975   2 0.0000 14.679010 18.873013 18.873013
976   2 0.0000 18.873013  2.097001  2.097001
977   2 0.0000 18.873013  2.097001  6.291004
978   2 0.0000 18.873013  2.097001 10.485007
979   2 0.0000 18.873013  2.097001 14.679010
980   2 0.0000 18.873013  2.097001 18.873013
981   2 0.0000 18.873013  6.291004  2.097001
982   2 0.0000 18.873013  6.291004  6.291004
983   2 0.0000 18.873013  6.291004 10.485007
984   2 0.0000 18.873013  6.291004 14.679010
985   2 0.0000 18.873013  6.291004 18.873013
986   2 0.0000 18.873013 10.485007  2.097001
987   2 0.0000 18.873013 10.485007  6.291004
988   2 0.0000 18.873013 10.485007 10.485007
989   2 0.0000 18.873013 10.485007 14.679010
990   2 0.0000 18.873013 10.485007 18.873013
991   2 0.0000 18.873013 14.679010  2.097001
992   2 0.0000 18.873013 14.679010  6.291004
993   2 0.0000 18.873013 14.679010 10.485007
994   2 0.0000 18.873013 14.679010 14.679010
995   2 0.0000 18.873013 14.679010 18.873013
996   2 0.0000 18.873013 18.873013  2.097001
997   2 0.0000 18.873013 18.873013  6.291004
998   2 0.0000 18.873013 18.873013 10.485007
999   2 0.0000 18.873013 18.873013 14.679010
1000  2 0.0000 18.873013 18.873013 18.873013

