Generated by pymatgen.io.lammps.data.LammpsData

1000  atoms

   2  atom types

0.000000 26.043976  xlo xhi
0.000000 26.043976  ylo yhi
0.000000 26.043976  zlo zhi

Masses

1  24.305
2  32.065

Atoms

1     1 0.0000  0.000000  0.000000  0.000000
2     1 0.0000  0.000000  0.000000  5.208795
3     1 0.0000  0.000000  0.000000 10.417590
4     1 0.0000  0.000000  0.000000 15.626385
5     1 0.0000  0.000000  0.000000 20.835180
6     1 0.0000  0.000000  5.208795  0.000000
7     1 0.0000  0.000000  5.208795  5.208795
8     1 0.0000  0.000000  5.208795 10.417590
9     1 0.0000  0.000000  5.208795 15.626385
10    1 0.0000  0.000000  5.208795 20.835180
11    1 0.0000  0.000000 10.417590  0.000000
12    1 0.0000  0.000000 10.417590  5.208795
13    1 0.0000  0.000000 10.417590 10.417590
14    1 0.0000  0.000000 10.417590 15.626385
15    1 0.0000  0.000000 10.417590 20.835180
16    1 0.0000  0.000000 15.626385  0.000000
17    1 0.0000  0.000000 15.626385  5.208795
18    1 0.0000  0.000000 15.626385 10.417590
19    1 0.0000  0.000000 15.626385 15.626385
20    1 0.0000  0.000000 15.626385 20.835180
21    1 0.0000  0.000000 20.835180  0.000000
22    1 0.0000  0.000000 20.835180  5.208795
23    1 0.0000  0.000000 20.835180 10.417590
24    1 0.0000  0.000000 20.835180 15.626385
25    1 0.0000  0.000000 20.835180 20.835180
26    1 0.0000  5.208795  0.000000  0.000000
27    1 0.0000  5.208795  0.000000  5.208795
28    1 0.0000  5.208795  0.000000 10.417590
29    1 0.0000  5.208795  0.000000 15.626385
30    1 0.0000  5.208795  0.000000 20.835180
31    1 0.0000  5.208795  5.208795  0.000000
32    1 0.0000  5.208795  5.208795  5.208795
33    1 0.0000  5.208795  5.208795 10.417590
34    1 0.0000  5.208795  5.208795 15.626385
35    1 0.0000  5.208795  5.208795 20.835180
36    1 0.0000  5.208795 10.417590  0.000000
37    1 0.0000  5.208795 10.417590  5.208795
38    1 0.0000  5.208795 10.417590 10.417590
39    1 0.0000  5.208795 10.417590 15.626385
40    1 0.0000  5.208795 10.417590 20.835180
41    1 0.0000  5.208795 15.626385  0.000000
42    1 0.0000  5.208795 15.626385  5.208795
43    1 0.0000  5.208795 15.626385 10.417590
44    1 0.0000  5.208795 15.626385 15.626385
45    1 0.0000  5.208795 15.626385 20.835180
46    1 0.0000  5.208795 20.835180  0.000000
47    1 0.0000  5.208795 20.835180  5.208795
48    1 0.0000  5.208795 20.835180 10.417590
49    1 0.0000  5.208795 20.835180 15.626385
50    1 0.0000  5.208795 20.835180 20.835180
51    1 0.0000 10.417590  0.000000  0.000000
52    1 0.0000 10.417590  0.000000  5.208795
53    1 0.0000 10.417590  0.000000 10.417590
54    1 0.0000 10.417590  0.000000 15.626385
55    1 0.0000 10.417590  0.000000 20.835180
56    1 0.0000 10.417590  5.208795  0.000000
57    1 0.0000 10.417590  5.208795  5.208795
58    1 0.0000 10.417590  5.208795 10.417590
59    1 0.0000 10.417590  5.208795 15.626385
60    1 0.0000 10.417590  5.208795 20.835180
61    1 0.0000 10.417590 10.417590  0.000000
62    1 0.0000 10.417590 10.417590  5.208795
63    1 0.0000 10.417590 10.417590 10.417590
64    1 0.0000 10.417590 10.417590 15.626385
65    1 0.0000 10.417590 10.417590 20.835180
66    1 0.0000 10.417590 15.626385  0.000000
67    1 0.0000 10.417590 15.626385  5.208795
68    1 0.0000 10.417590 15.626385 10.417590
69    1 0.0000 10.417590 15.626385 15.626385
70    1 0.0000 10.417590 15.626385 20.835180
71    1 0.0000 10.417590 20.835180  0.000000
72    1 0.0000 10.417590 20.835180  5.208795
73    1 0.0000 10.417590 20.835180 10.417590
74    1 0.0000 10.417590 20.835180 15.626385
75    1 0.0000 10.417590 20.835180 20.835180
76    1 0.0000 15.626385  0.000000  0.000000
77    1 0.0000 15.626385  0.000000  5.208795
78    1 0.0000 15.626385  0.000000 10.417590
79    1 0.0000 15.626385  0.000000 15.626385
80    1 0.0000 15.626385  0.000000 20.835180
81    1 0.0000 15.626385  5.208795  0.000000
82    1 0.0000 15.626385  5.208795  5.208795
83    1 0.0000 15.626385  5.208795 10.417590
84    1 0.0000 15.626385  5.208795 15.626385
85    1 0.0000 15.626385  5.208795 20.835180
86    1 0.0000 15.626385 10.417590  0.000000
87    1 0.0000 15.626385 10.417590  5.208795
88    1 0.0000 15.626385 10.417590 10.417590
89    1 0.0000 15.626385 10.417590 15.626385
90    1 0.0000 15.626385 10.417590 20.835180
91    1 0.0000 15.626385 15.626385  0.000000
92    1 0.0000 15.626385 15.626385  5.208795
93    1 0.0000 15.626385 15.626385 10.417590
94    1 0.0000 15.626385 15.626385 15.626385
95    1 0.0000 15.626385 15.626385 20.835180
96    1 0.0000 15.626385 20.835180  0.000000
97    1 0.0000 15.626385 20.835180  5.208795
98    1 0.0000 15.626385 20.835180 10.417590
99    1 0.0000 15.626385 20.835180 15.626385
100   1 0.0000 15.626385 20.835180 20.835180
101   1 0.0000 20.835180  0.000000  0.000000
102   1 0.0000 20.835180  0.000000  5.208795
103   1 0.0000 20.835180  0.000000 10.417590
104   1 0.0000 20.835180  0.000000 15.626385
105   1 0.0000 20.835180  0.000000 20.835180
106   1 0.0000 20.835180  5.208795  0.000000
107   1 0.0000 20.835180  5.208795  5.208795
108   1 0.0000 20.835180  5.208795 10.417590
109   1 0.0000 20.835180  5.208795 15.626385
110   1 0.0000 20.835180  5.208795 20.835180
111   1 0.0000 20.835180 10.417590  0.000000
112   1 0.0000 20.835180 10.417590  5.208795
113   1 0.0000 20.835180 10.417590 10.417590
114   1 0.0000 20.835180 10.417590 15.626385
115   1 0.0000 20.835180 10.417590 20.835180
116   1 0.0000 20.835180 15.626385  0.000000
117   1 0.0000 20.835180 15.626385  5.208795
118   1 0.0000 20.835180 15.626385 10.417590
119   1 0.0000 20.835180 15.626385 15.626385
120   1 0.0000 20.835180 15.626385 20.835180
121   1 0.0000 20.835180 20.835180  0.000000
122   1 0.0000 20.835180 20.835180  5.208795
123   1 0.0000 20.835180 20.835180 10.417590
124   1 0.0000 20.835180 20.835180 15.626385
125   1 0.0000 20.835180 20.835180 20.835180
126   1 0.0000  0.000000  2.604398  2.604398
127   1 0.0000  0.000000  2.604398  7.813193
128   1 0.0000  0.000000  2.604398 13.021988
129   1 0.0000  0.000000  2.604398 18.230783
130   1 0.0000  0.000000  2.604398 23.439578
131   1 0.0000  0.000000  7.813193  2.604398
132   1 0.0000  0.000000  7.813193  7.813193
133   1 0.0000  0.000000  7.813193 13.021988
134   1 0.0000  0.000000  7.813193 18.230783
135   1 0.0000  0.000000  7.813193 23.439578
136   1 0.0000  0.000000 13.021988  2.604398
137   1 0.0000  0.000000 13.021988  7.813193
138   1 0.0000  0.000000 13.021988 13.021988
139   1 0.0000  0.000000 13.021988 18.230783
140   1 0.0000  0.000000 13.021988 23.439578
141   1 0.0000  0.000000 18.230783  2.604398
142   1 0.0000  0.000000 18.230783  7.813193
143   1 0.0000  0.000000 18.230783 13.021988
144   1 0.0000  0.000000 18.230783 18.230783
145   1 0.0000  0.000000 18.230783 23.439578
146   1 0.0000  0.000000 23.439578  2.604398
147   1 0.0000  0.000000 23.439578  7.813193
148   1 0.0000  0.000000 23.439578 13.021988
149   1 0.0000  0.000000 23.439578 18.230783
150   1 0.0000  0.000000 23.439578 23.439578
151   1 0.0000  5.208795  2.604398  2.604398
152   1 0.0000  5.208795  2.604398  7.813193
153   1 0.0000  5.208795  2.604398 13.021988
154   1 0.0000  5.208795  2.604398 18.230783
155   1 0.0000  5.208795  2.604398 23.439578
156   1 0.0000  5.208795  7.813193  2.604398
157   1 0.0000  5.208795  7.813193  7.813193
158   1 0.0000  5.208795  7.813193 13.021988
159   1 0.0000  5.208795  7.813193 18.230783
160   1 0.0000  5.208795  7.813193 23.439578
161   1 0.0000  5.208795 13.021988  2.604398
162   1 0.0000  5.208795 13.021988  7.813193
163   1 0.0000  5.208795 13.021988 13.021988
164   1 0.0000  5.208795 13.021988 18.230783
165   1 0.0000  5.208795 13.021988 23.439578
166   1 0.0000  5.208795 18.230783  2.604398
167   1 0.0000  5.208795 18.230783  7.813193
168   1 0.0000  5.208795 18.230783 13.021988
169   1 0.0000  5.208795 18.230783 18.230783
170   1 0.0000  5.208795 18.230783 23.439578
171   1 0.0000  5.208795 23.439578  2.604398
172   1 0.0000  5.208795 23.439578  7.813193
173   1 0.0000  5.208795 23.439578 13.021988
174   1 0.0000  5.208795 23.439578 18.230783
175   1 0.0000  5.208795 23.439578 23.439578
176   1 0.0000 10.417590  2.604398  2.604398
177   1 0.0000 10.417590  2.604398  7.813193
178   1 0.0000 10.417590  2.604398 13.021988
179   1 0.0000 10.417590  2.604398 18.230783
180   1 0.0000 10.417590  2.604398 23.439578
181   1 0.0000 10.417590  7.813193  2.604398
182   1 0.0000 10.417590  7.813193  7.813193
183   1 0.0000 10.417590  7.813193 13.021988
184   1 0.0000 10.417590  7.813193 18.230783
185   1 0.0000 10.417590  7.813193 23.439578
186   1 0.0000 10.417590 13.021988  2.604398
187   1 0.0000 10.417590 13.021988  7.813193
188   1 0.0000 10.417590 13.021988 13.021988
189   1 0.0000 10.417590 13.021988 18.230783
190   1 0.0000 10.417590 13.021988 23.439578
191   1 0.0000 10.417590 18.230783  2.604398
192   1 0.0000 10.417590 18.230783  7.813193
193   1 0.0000 10.417590 18.230783 13.021988
194   1 0.0000 10.417590 18.230783 18.230783
195   1 0.0000 10.417590 18.230783 23.439578
196   1 0.0000 10.417590 23.439578  2.604398
197   1 0.0000 10.417590 23.439578  7.813193
198   1 0.0000 10.417590 23.439578 13.021988
199   1 0.0000 10.417590 23.439578 18.230783
200   1 0.0000 10.417590 23.439578 23.439578
201   1 0.0000 15.626385  2.604398  2.604398
202   1 0.0000 15.626385  2.604398  7.813193
203   1 0.0000 15.626385  2.604398 13.021988
204   1 0.0000 15.626385  2.604398 18.230783
205   1 0.0000 15.626385  2.604398 23.439578
206   1 0.0000 15.626385  7.813193  2.604398
207   1 0.0000 15.626385  7.813193  7.813193
208   1 0.0000 15.626385  7.813193 13.021988
209   1 0.0000 15.626385  7.813193 18.230783
210   1 0.0000 15.626385  7.813193 23.439578
211   1 0.0000 15.626385 13.021988  2.604398
212   1 0.0000 15.626385 13.021988  7.813193
213   1 0.0000 15.626385 13.021988 13.021988
214   1 0.0000 15.626385 13.021988 18.230783
215   1 0.0000 15.626385 13.021988 23.439578
216   1 0.0000 15.626385 18.230783  2.604398
217   1 0.0000 15.626385 18.230783  7.813193
218   1 0.0000 15.626385 18.230783 13.021988
219   1 0.0000 15.626385 18.230783 18.230783
220   1 0.0000 15.626385 18.230783 23.439578
221   1 0.0000 15.626385 23.439578  2.604398
222   1 0.0000 15.626385 23.439578  7.813193
223   1 0.0000 15.626385 23.439578 13.021988
224   1 0.0000 15.626385 23.439578 18.230783
225   1 0.0000 15.626385 23.439578 23.439578
226   1 0.0000 20.835180  2.604398  2.604398
227   1 0.0000 20.835180  2.604398  7.813193
228   1 0.0000 20.835180  2.604398 13.021988
229   1 0.0000 20.835180  2.604398 18.230783
230   1 0.0000 20.835180  2.604398 23.439578
231   1 0.0000 20.835180  7.813193  2.604398
232   1 0.0000 20.835180  7.813193  7.813193
233   1 0.0000 20.835180  7.813193 13.021988
234   1 0.0000 20.835180  7.813193 18.230783
235   1 0.0000 20.835180  7.813193 23.439578
236   1 0.0000 20.835180 13.021988  2.604398
237   1 0.0000 20.835180 13.021988  7.813193
238   1 0.0000 20.835180 13.021988 13.021988
239   1 0.0000 20.835180 13.021988 18.230783
240   1 0.0000 20.835180 13.021988 23.439578
241   1 0.0000 20.835180 18.230783  2.604398
242   1 0.0000 20.835180 18.230783  7.813193
243   1 0.0000 20.835180 18.230783 13.021988
244   1 0.0000 20.835180 18.230783 18.230783
245   1 0.0000 20.835180 18.230783 23.439578
246   1 0.0000 20.835180 23.439578  2.604398
247   1 0.0000 20.835180 23.439578  7.813193
248   1 0.0000 20.835180 23.439578 13.021988
249   1 0.0000 20.835180 23.439578 18.230783
250   1 0.0000 20.835180 23.439578 23.439578
251   1 0.0000  2.604398  0.000000  2.604398
252   1 0.0000  2.604398  0.000000  7.813193
253   1 0.0000  2.604398  0.000000 13.021988
254   1 0.0000  2.604398  0.000000 18.230783
255   1 0.0000  2.604398  0.000000 23.439578
256   1 0.0000  2.604398  5.208795  2.604398
257   1 0.0000  2.604398  5.208795  7.813193
258   1 0.0000  2.604398  5.208795 13.021988
259   1 0.0000  2.604398  5.208795 18.230783
260   1 0.0000  2.604398  5.208795 23.439578
261   1 0.0000  2.604398 10.417590  2.604398
262   1 0.0000  2.604398 10.417590  7.813193
263   1 0.0000  2.604398 10.417590 13.021988
264   1 0.0000  2.604398 10.417590 18.230783
265   1 0.0000  2.604398 10.417590 23.439578
266   1 0.0000  2.604398 15.626385  2.604398
267   1 0.0000  2.604398 15.626385  7.813193
268   1 0.0000  2.604398 15.626385 13.021988
269   1 0.0000  2.604398 15.626385 18.230783
270   1 0.0000  2.604398 15.626385 23.439578
271   1 0.0000  2.604398 20.835180  2.604398
272   1 0.0000  2.604398 20.835180  7.813193
273   1 0.0000  2.604398 20.835180 13.021988
274   1 0.0000  2.604398 20.835180 18.230783
275   1 0.0000  2.604398 20.835180 23.439578
276   1 0.0000  7.813193  0.000000  2.604398
277   1 0.0000  7.813193  0.000000  7.813193
278   1 0.0000  7.813193  0.000000 13.021988
279   1 0.0000  7.813193  0.000000 18.230783
280   1 0.0000  7.813193  0.000000 23.439578
281   1 0.0000  7.813193  5.208795  2.604398
282   1 0.0000  7.813193  5.208795  7.813193
283   1 0.0000  7.813193  5.208795 13.021988
284   1 0.0000  7.813193  5.208795 18.230783
285   1 0.0000  7.813193  5.208795 23.439578
286   1 0.0000  7.813193 10.417590  2.604398
287   1 0.0000  7.813193 10.417590  7.813193
288   1 0.0000  7.813193 10.417590 13.021988
289   1 0.0000  7.813193 10.417590 18.230783
290   1 0.0000  7.813193 10.417590 23.439578
291   1 0.0000  7.813193 15.626385  2.604398
292   1 0.0000  7.813193 15.626385  7.813193
293   1 0.0000  7.813193 15.626385 13.021988
294   1 0.0000  7.813193 15.626385 18.230783
295   1 0.0000  7.813193 15.626385 23.439578
296   1 0.0000  7.813193 20.835180  2.604398
297   1 0.0000  7.813193 20.835180  7.813193
298   1 0.0000  7.813193 20.835180 13.021988
299   1 0.0000  7.813193 20.835180 18.230783
300   1 0.0000  7.813193 20.835180 23.439578
301   1 0.0000 13.021988  0.000000  2.604398
302   1 0.0000 13.021988  0.000000  7.813193
303   1 0.0000 13.021988  0.000000 13.021988
304   1 0.0000 13.021988  0.000000 18.230783
305   1 0.0000 13.021988  0.000000 23.439578
306   1 0.0000 13.021988  5.208795  2.604398
307   1 0.0000 13.021988  5.208795  7.813193
308   1 0.0000 13.021988  5.208795 13.021988
309   1 0.0000 13.021988  5.208795 18.230783
310   1 0.0000 13.021988  5.208795 23.439578
311   1 0.0000 13.021988 10.417590  2.604398
312   1 0.0000 13.021988 10.417590  7.813193
313   1 0.0000 13.021988 10.417590 13.021988
314   1 0.0000 13.021988 10.417590 18.230783
315   1 0.0000 13.021988 10.417590 23.439578
316   1 0.0000 13.021988 15.626385  2.604398
317   1 0.0000 13.021988 15.626385  7.813193
318   1 0.0000 13.021988 15.626385 13.021988
319   1 0.0000 13.021988 15.626385 18.230783
320   1 0.0000 13.021988 15.626385 23.439578
321   1 0.0000 13.021988 20.835180  2.604398
322   1 0.0000 13.021988 20.835180  7.813193
323   1 0.0000 13.021988 20.835180 13.021988
324   1 0.0000 13.021988 20.835180 18.230783
325   1 0.0000 13.021988 20.835180 23.439578
326   1 0.0000 18.230783  0.000000  2.604398
327   1 0.0000 18.230783  0.000000  7.813193
328   1 0.0000 18.230783  0.000000 13.021988
329   1 0.0000 18.230783  0.000000 18.230783
330   1 0.0000 18.230783  0.000000 23.439578
331   1 0.0000 18.230783  5.208795  2.604398
332   1 0.0000 18.230783  5.208795  7.813193
333   1 0.0000 18.230783  5.208795 13.021988
334   1 0.0000 18.230783  5.208795 18.230783
335   1 0.0000 18.230783  5.208795 23.439578
336   1 0.0000 18.230783 10.417590  2.604398
337   1 0.0000 18.230783 10.417590  7.813193
338   1 0.0000 18.230783 10.417590 13.021988
339   1 0.0000 18.230783 10.417590 18.230783
340   1 0.0000 18.230783 10.417590 23.439578
341   1 0.0000 18.230783 15.626385  2.604398
342   1 0.0000 18.230783 15.626385  7.813193
343   1 0.0000 18.230783 15.626385 13.021988
344   1 0.0000 18.230783 15.626385 18.230783
345   1 0.0000 18.230783 15.626385 23.439578
346   1 0.0000 18.230783 20.835180  2.604398
347   1 0.0000 18.230783 20.835180  7.813193
348   1 0.0000 18.230783 20.835180 13.021988
349   1 0.0000 18.230783 20.835180 18.230783
350   1 0.0000 18.230783 20.835180 23.439578
351   1 0.0000 23.439578  0.000000  2.604398
352   1 0.0000 23.439578  0.000000  7.813193
353   1 0.0000 23.439578  0.000000 13.021988
354   1 0.0000 23.439578  0.000000 18.230783
355   1 0.0000 23.439578  0.000000 23.439578
356   1 0.0000 23.439578  5.208795  2.604398
357   1 0.0000 23.439578  5.208795  7.813193
358   1 0.0000 23.439578  5.208795 13.021988
359   1 0.0000 23.439578  5.208795 18.230783
360   1 0.0000 23.439578  5.208795 23.439578
361   1 0.0000 23.439578 10.417590  2.604398
362   1 0.0000 23.439578 10.417590  7.813193
363   1 0.0000 23.439578 10.417590 13.021988
364   1 0.0000 23.439578 10.417590 18.230783
365   1 0.0000 23.439578 10.417590 23.439578
366   1 0.0000 23.439578 15.626385  2.604398
367   1 0.0000 23.439578 15.626385  7.813193
368   1 0.0000 23.439578 15.626385 13.021988
369   1 0.0000 23.439578 15.626385 18.230783
370   1 0.0000 23.439578 15.626385 23.439578
371   1 0.0000 23.439578 20.835180  2.604398
372   1 0.0000 23.439578 20.835180  7.813193
373   1 0.0000 23.439578 20.835180 13.021988
374   1 0.0000 23.439578 20.835180 18.230783
375   1 0.0000 23.439578 20.835180 23.439578
376   1 0.0000  2.604398  2.604398  0.000000
377   1 0.0000  2.604398  2.604398  5.208795
378   1 0.0000  2.604398  2.604398 10.417590
379   1 0.0000  2.604398  2.604398 15.626385
380   1 0.0000  2.604398  2.604398 20.835180
381   1 0.0000  2.604398  7.813193  0.000000
382   1 0.0000  2.604398  7.813193  5.208795
383   1 0.0000  2.604398  7.813193 10.417590
384   1 0.0000  2.604398  7.813193 15.626385
385   1 0.0000  2.604398  7.813193 20.835180
386   1 0.0000  2.604398 13.021988  0.000000
387   1 0.0000  2.604398 13.021988  5.208795
388   1 0.0000  2.604398 13.021988 10.417590
389   1 0.0000  2.604398 13.021988 15.626385
390   1 0.0000  2.604398 13.021988 20.835180
391   1 0.0000  2.604398 18.230783  0.000000
392   1 0.0000  2.604398 18.230783  5.208795
393   1 0.0000  2.604398 18.230783 10.417590
394   1 0.0000  2.604398 18.230783 15.626385
395   1 0.0000  2.604398 18.230783 20.835180
396   1 0.0000  2.604398 23.439578 -0.000000
397   1 0.0000  2.604398 23.439578  5.208795
398   1 0.0000  2.604398 23.439578 10.417590
399   1 0.0000  2.604398 23.439578 15.626385
400   1 0.0000  2.604398 23.439578 20.835180
401   1 0.0000  7.813193  2.604398  0.000000
402   1 0.0000  7.813193  2.604398  5.208795
403   1 0.0000  7.813193  2.604398 10.417590
404   1 0.0000  7.813193  2.604398 15.626385
405   1 0.0000  7.813193  2.604398 20.835180
406   1 0.0000  7.813193  7.813193  0.000000
407   1 0.0000  7.813193  7.813193  5.208795
408   1 0.0000  7.813193  7.813193 10.417590
409   1 0.0000  7.813193  7.813193 15.626385
410   1 0.0000  7.813193  7.813193 20.835180
411   1 0.0000  7.813193 13.021988  0.000000
412   1 0.0000  7.813193 13.021988  5.208795
413   1 0.0000  7.813193 13.021988 10.417590
414   1 0.0000  7.813193 13.021988 15.626385
415   1 0.0000  7.813193 13.021988 20.835180
416   1 0.0000  7.813193 18.230783  0.000000
417   1 0.0000  7.813193 18.230783  5.208795
418   1 0.0000  7.813193 18.230783 10.417590
419   1 0.0000  7.813193 18.230783 15.626385
420   1 0.0000  7.813193 18.230783 20.835180
421   1 0.0000  7.813193 23.439578  0.000000
422   1 0.0000  7.813193 23.439578  5.208795
423   1 0.0000  7.813193 23.439578 10.417590
424   1 0.0000  7.813193 23.439578 15.626385
425   1 0.0000  7.813193 23.439578 20.835180
426   1 0.0000 13.021988  2.604398  0.000000
427   1 0.0000 13.021988  2.604398  5.208795
428   1 0.0000 13.021988  2.604398 10.417590
429   1 0.0000 13.021988  2.604398 15.626385
430   1 0.0000 13.021988  2.604398 20.835180
431   1 0.0000 13.021988  7.813193  0.000000
432   1 0.0000 13.021988  7.813193  5.208795
433   1 0.0000 13.021988  7.813193 10.417590
434   1 0.0000 13.021988  7.813193 15.626385
435   1 0.0000 13.021988  7.813193 20.835180
436   1 0.0000 13.021988 13.021988  0.000000
437   1 0.0000 13.021988 13.021988  5.208795
438   1 0.0000 13.021988 13.021988 10.417590
439   1 0.0000 13.021988 13.021988 15.626385
440   1 0.0000 13.021988 13.021988 20.835180
441   1 0.0000 13.021988 18.230783  0.000000
442   1 0.0000 13.021988 18.230783  5.208795
443   1 0.0000 13.021988 18.230783 10.417590
444   1 0.0000 13.021988 18.230783 15.626385
445   1 0.0000 13.021988 18.230783 20.835180
446   1 0.0000 13.021988 23.439578  0.000000
447   1 0.0000 13.021988 23.439578  5.208795
448   1 0.0000 13.021988 23.439578 10.417590
449   1 0.0000 13.021988 23.439578 15.626385
450   1 0.0000 13.021988 23.439578 20.835180
451   1 0.0000 18.230783  2.604398  0.000000
452   1 0.0000 18.230783  2.604398  5.208795
453   1 0.0000 18.230783  2.604398 10.417590
454   1 0.0000 18.230783  2.604398 15.626385
455   1 0.0000 18.230783  2.604398 20.835180
456   1 0.0000 18.230783  7.813193  0.000000
457   1 0.0000 18.230783  7.813193  5.208795
458   1 0.0000 18.230783  7.813193 10.417590
459   1 0.0000 18.230783  7.813193 15.626385
460   1 0.0000 18.230783  7.813193 20.835180
461   1 0.0000 18.230783 13.021988  0.000000
462   1 0.0000 18.230783 13.021988  5.208795
463   1 0.0000 18.230783 13.021988 10.417590
464   1 0.0000 18.230783 13.021988 15.626385
465   1 0.0000 18.230783 13.021988 20.835180
466   1 0.0000 18.230783 18.230783  0.000000
467   1 0.0000 18.230783 18.230783  5.208795
468   1 0.0000 18.230783 18.230783 10.417590
469   1 0.0000 18.230783 18.230783 15.626385
470   1 0.0000 18.230783 18.230783 20.835180
471   1 0.0000 18.230783 23.439578  0.000000
472   1 0.0000 18.230783 23.439578  5.208795
473   1 0.0000 18.230783 23.439578 10.417590
474   1 0.0000 18.230783 23.439578 15.626385
475   1 0.0000 18.230783 23.439578 20.835180
476   1 0.0000 23.439578  2.604398  0.000000
477   1 0.0000 23.439578  2.604398  5.208795
478   1 0.0000 23.439578  2.604398 10.417590
479   1 0.0000 23.439578  2.604398 15.626385
480   1 0.0000 23.439578  2.604398 20.835180
481   1 0.0000 23.439578  7.813193  0.000000
482   1 0.0000 23.439578  7.813193  5.208795
483   1 0.0000 23.439578  7.813193 10.417590
484   1 0.0000 23.439578  7.813193 15.626385
485   1 0.0000 23.439578  7.813193 20.835180
486   1 0.0000 23.439578 13.021988  0.000000
487   1 0.0000 23.439578 13.021988  5.208795
488   1 0.0000 23.439578 13.021988 10.417590
489   1 0.0000 23.439578 13.021988 15.626385
490   1 0.0000 23.439578 13.021988 20.835180
491   1 0.0000 23.439578 18.230783  0.000000
492   1 0.0000 23.439578 18.230783  5.208795
493   1 0.0000 23.439578 18.230783 10.417590
494   1 0.0000 23.439578 18.230783 15.626385
495   1 0.0000 23.439578 18.230783 20.835180
496   1 0.0000 23.439578 23.439578  0.000000
497   1 0.0000 23.439578 23.439578  5.208795
498   1 0.0000 23.439578 23.439578 10.417590
499   1 0.0000 23.439578 23.439578 15.626385
500   1 0.0000 23.439578 23.439578 20.835180
501   2 0.0000  0.000000  2.604398  0.000000
502   2 0.0000  0.000000  2.604398  5.208795
503   2 0.0000  0.000000  2.604398 10.417590
504   2 0.0000  0.000000  2.604398 15.626385
505   2 0.0000  0.000000  2.604398 20.835180
506   2 0.0000  0.000000  7.813193  0.000000
507   2 0.0000  0.000000  7.813193  5.208795
508   2 0.0000  0.000000  7.813193 10.417590
509   2 0.0000  0.000000  7.813193 15.626385
510   2 0.0000  0.000000  7.813193 20.835180
511   2 0.0000  0.000000 13.021988  0.000000
512   2 0.0000  0.000000 13.021988  5.208795
513   2 0.0000  0.000000 13.021988 10.417590
514   2 0.0000  0.000000 13.021988 15.626385
515   2 0.0000  0.000000 13.021988 20.835180
516   2 0.0000  0.000000 18.230783  0.000000
517   2 0.0000  0.000000 18.230783  5.208795
518   2 0.0000  0.000000 18.230783 10.417590
519   2 0.0000  0.000000 18.230783 15.626385
520   2 0.0000  0.000000 18.230783 20.835180
521   2 0.0000  0.000000 23.439578  0.000000
522   2 0.0000  0.000000 23.439578  5.208795
523   2 0.0000  0.000000 23.439578 10.417590
524   2 0.0000  0.000000 23.439578 15.626385
525   2 0.0000  0.000000 23.439578 20.835180
526   2 0.0000  5.208795  2.604398  0.000000
527   2 0.0000  5.208795  2.604398  5.208795
528   2 0.0000  5.208795  2.604398 10.417590
529   2 0.0000  5.208795  2.604398 15.626385
530   2 0.0000  5.208795  2.604398 20.835180
531   2 0.0000  5.208795  7.813193  0.000000
532   2 0.0000  5.208795  7.813193  5.208795
533   2 0.0000  5.208795  7.813193 10.417590
534   2 0.0000  5.208795  7.813193 15.626385
535   2 0.0000  5.208795  7.813193 20.835180
536   2 0.0000  5.208795 13.021988  0.000000
537   2 0.0000  5.208795 13.021988  5.208795
538   2 0.0000  5.208795 13.021988 10.417590
539   2 0.0000  5.208795 13.021988 15.626385
540   2 0.0000  5.208795 13.021988 20.835180
541   2 0.0000  5.208795 18.230783  0.000000
542   2 0.0000  5.208795 18.230783  5.208795
543   2 0.0000  5.208795 18.230783 10.417590
544   2 0.0000  5.208795 18.230783 15.626385
545   2 0.0000  5.208795 18.230783 20.835180
546   2 0.0000  5.208795 23.439578  0.000000
547   2 0.0000  5.208795 23.439578  5.208795
548   2 0.0000  5.208795 23.439578 10.417590
549   2 0.0000  5.208795 23.439578 15.626385
550   2 0.0000  5.208795 23.439578 20.835180
551   2 0.0000 10.417590  2.604398  0.000000
552   2 0.0000 10.417590  2.604398  5.208795
553   2 0.0000 10.417590  2.604398 10.417590
554   2 0.0000 10.417590  2.604398 15.626385
555   2 0.0000 10.417590  2.604398 20.835180
556   2 0.0000 10.417590  7.813193  0.000000
557   2 0.0000 10.417590  7.813193  5.208795
558   2 0.0000 10.417590  7.813193 10.417590
559   2 0.0000 10.417590  7.813193 15.626385
560   2 0.0000 10.417590  7.813193 20.835180
561   2 0.0000 10.417590 13.021988  0.000000
562   2 0.0000 10.417590 13.021988  5.208795
563   2 0.0000 10.417590 13.021988 10.417590
564   2 0.0000 10.417590 13.021988 15.626385
565   2 0.0000 10.417590 13.021988 20.835180
566   2 0.0000 10.417590 18.230783  0.000000
567   2 0.0000 10.417590 18.230783  5.208795
568   2 0.0000 10.417590 18.230783 10.417590
569   2 0.0000 10.417590 18.230783 15.626385
570   2 0.0000 10.417590 18.230783 20.835180
571   2 0.0000 10.417590 23.439578  0.000000
572   2 0.0000 10.417590 23.439578  5.208795
573   2 0.0000 10.417590 23.439578 10.417590
574   2 0.0000 10.417590 23.439578 15.626385
575   2 0.0000 10.417590 23.439578 20.835180
576   2 0.0000 15.626385  2.604398  0.000000
577   2 0.0000 15.626385  2.604398  5.208795
578   2 0.0000 15.626385  2.604398 10.417590
579   2 0.0000 15.626385  2.604398 15.626385
580   2 0.0000 15.626385  2.604398 20.835180
581   2 0.0000 15.626385  7.813193 -0.000000
582   2 0.0000 15.626385  7.813193  5.208795
583   2 0.0000 15.626385  7.813193 10.417590
584   2 0.0000 15.626385  7.813193 15.626385
585   2 0.0000 15.626385  7.813193 20.835180
586   2 0.0000 15.626385 13.021988  0.000000
587   2 0.0000 15.626385 13.021988  5.208795
588   2 0.0000 15.626385 13.021988 10.417590
589   2 0.0000 15.626385 13.021988 15.626385
590   2 0.0000 15.626385 13.021988 20.835180
591   2 0.0000 15.626385 18.230783  0.000000
592   2 0.0000 15.626385 18.230783  5.208795
593   2 0.0000 15.626385 18.230783 10.417590
594   2 0.0000 15.626385 18.230783 15.626385
595   2 0.0000 15.626385 18.230783 20.835180
596   2 0.0000 15.626385 23.439578  0.000000
597   2 0.0000 15.626385 23.439578  5.208795
598   2 0.0000 15.626385 23.439578 10.417590
599   2 0.0000 15.626385 23.439578 15.626385
600   2 0.0000 15.626385 23.439578 20.835180
601   2 0.0000 20.835180  2.604398  0.000000
602   2 0.0000 20.835180  2.604398  5.208795
603   2 0.0000 20.835180  2.604398 10.417590
604   2 0.0000 20.835180  2.604398 15.626385
605   2 0.0000 20.835180  2.604398 20.835180
606   2 0.0000 20.835180  7.813193  0.000000
607   2 0.0000 20.835180  7.813193  5.208795
608   2 0.0000 20.835180  7.813193 10.417590
609   2 0.0000 20.835180  7.813193 15.626385
610   2 0.0000 20.835180  7.813193 20.835180
611   2 0.0000 20.835180 13.021988  0.000000
612   2 0.0000 20.835180 13.021988  5.208795
613   2 0.0000 20.835180 13.021988 10.417590
614   2 0.0000 20.835180 13.021988 15.626385
615   2 0.0000 20.835180 13.021988 20.835180
616   2 0.0000 20.835180 18.230783  0.000000
617   2 0.0000 20.835180 18.230783  5.208795
618   2 0.0000 20.835180 18.230783 10.417590
619   2 0.0000 20.835180 18.230783 15.626385
620   2 0.0000 20.835180 18.230783 20.835180
621   2 0.0000 20.835180 23.439578  0.000000
622   2 0.0000 20.835180 23.439578  5.208795
623   2 0.0000 20.835180 23.439578 10.417590
624   2 0.0000 20.835180 23.439578 15.626385
625   2 0.0000 20.835180 23.439578 20.835180
626   2 0.0000  0.000000  0.000000  2.604398
627   2 0.0000  0.000000  0.000000  7.813193
628   2 0.0000  0.000000  0.000000 13.021988
629   2 0.0000  0.000000  0.000000 18.230783
630   2 0.0000  0.000000  0.000000 23.439578
631   2 0.0000  0.000000  5.208795  2.604398
632   2 0.0000  0.000000  5.208795  7.813193
633   2 0.0000  0.000000  5.208795 13.021988
634   2 0.0000  0.000000  5.208795 18.230783
635   2 0.0000  0.000000  5.208795 23.439578
636   2 0.0000  0.000000 10.417590  2.604398
637   2 0.0000  0.000000 10.417590  7.813193
638   2 0.0000  0.000000 10.417590 13.021988
639   2 0.0000  0.000000 10.417590 18.230783
640   2 0.0000  0.000000 10.417590 23.439578
641   2 0.0000  0.000000 15.626385  2.604398
642   2 0.0000  0.000000 15.626385  7.813193
643   2 0.0000  0.000000 15.626385 13.021988
644   2 0.0000  0.000000 15.626385 18.230783
645   2 0.0000  0.000000 15.626385 23.439578
646   2 0.0000  0.000000 20.835180  2.604398
647   2 0.0000  0.000000 20.835180  7.813193
648   2 0.0000  0.000000 20.835180 13.021988
649   2 0.0000  0.000000 20.835180 18.230783
650   2 0.0000  0.000000 20.835180 23.439578
651   2 0.0000  5.208795  0.000000  2.604398
652   2 0.0000  5.208795  0.000000  7.813193
653   2 0.0000  5.208795  0.000000 13.021988
654   2 0.0000  5.208795  0.000000 18.230783
655   2 0.0000  5.208795  0.000000 23.439578
656   2 0.0000  5.208795  5.208795  2.604398
657   2 0.0000  5.208795  5.208795  7.813193
658   2 0.0000  5.208795  5.208795 13.021988
659   2 0.0000  5.208795  5.208795 18.230783
660   2 0.0000  5.208795  5.208795 23.439578
661   2 0.0000  5.208795 10.417590  2.604398
662   2 0.0000  5.208795 10.417590  7.813193
663   2 0.0000  5.208795 10.417590 13.021988
664   2 0.0000  5.208795 10.417590 18.230783
665   2 0.0000  5.208795 10.417590 23.439578
666   2 0.0000  5.208795 15.626385  2.604398
667   2 0.0000  5.208795 15.626385  7.813193
668   2 0.0000  5.208795 15.626385 13.021988
669   2 0.0000  5.208795 15.626385 18.230783
670   2 0.0000  5.208795 15.626385 23.439578
671   2 0.0000  5.208795 20.835180  2.604398
672   2 0.0000  5.208795 20.835180  7.813193
673   2 0.0000  5.208795 20.835180 13.021988
674   2 0.0000  5.208795 20.835180 18.230783
675   2 0.0000  5.208795 20.835180 23.439578
676   2 0.0000 10.417590  0.000000  2.604398
677   2 0.0000 10.417590  0.000000  7.813193
678   2 0.0000 10.417590  0.000000 13.021988
679   2 0.0000 10.417590  0.000000 18.230783
680   2 0.0000 10.417590  0.000000 23.439578
681   2 0.0000 10.417590  5.208795  2.604398
682   2 0.0000 10.417590  5.208795  7.813193
683   2 0.0000 10.417590  5.208795 13.021988
684   2 0.0000 10.417590  5.208795 18.230783
685   2 0.0000 10.417590  5.208795 23.439578
686   2 0.0000 10.417590 10.417590  2.604398
687   2 0.0000 10.417590 10.417590  7.813193
688   2 0.0000 10.417590 10.417590 13.021988
689   2 0.0000 10.417590 10.417590 18.230783
690   2 0.0000 10.417590 10.417590 23.439578
691   2 0.0000 10.417590 15.626385  2.604398
692   2 0.0000 10.417590 15.626385  7.813193
693   2 0.0000 10.417590 15.626385 13.021988
694   2 0.0000 10.417590 15.626385 18.230783
695   2 0.0000 10.417590 15.626385 23.439578
696   2 0.0000 10.417590 20.835180  2.604398
697   2 0.0000 10.417590 20.835180  7.813193
698   2 0.0000 10.417590 20.835180 13.021988
699   2 0.0000 10.417590 20.835180 18.230783
700   2 0.0000 10.417590 20.835180 23.439578
701   2 0.0000 15.626385  0.000000  2.604398
702   2 0.0000 15.626385  0.000000  7.813193
703   2 0.0000 15.626385  0.000000 13.021988
704   2 0.0000 15.626385  0.000000 18.230783
705   2 0.0000 15.626385  0.000000 23.439578
706   2 0.0000 15.626385  5.208795  2.604398
707   2 0.0000 15.626385  5.208795  7.813193
708   2 0.0000 15.626385  5.208795 13.021988
709   2 0.0000 15.626385  5.208795 18.230783
710   2 0.0000 15.626385  5.208795 23.439578
711   2 0.0000 15.626385 10.417590  2.604398
712   2 0.0000 15.626385 10.417590  7.813193
713   2 0.0000 15.626385 10.417590 13.021988
714   2 0.0000 15.626385 10.417590 18.230783
715   2 0.0000 15.626385 10.417590 23.439578
716   2 0.0000 15.626385 15.626385  2.604398
717   2 0.0000 15.626385 15.626385  7.813193
718   2 0.0000 15.626385 15.626385 13.021988
719   2 0.0000 15.626385 15.626385 18.230783
720   2 0.0000 15.626385 15.626385 23.439578
721   2 0.0000 15.626385 20.835180  2.604398
722   2 0.0000 15.626385 20.835180  7.813193
723   2 0.0000 15.626385 20.835180 13.021988
724   2 0.0000 15.626385 20.835180 18.230783
725   2 0.0000 15.626385 20.835180 23.439578
726   2 0.0000 20.835180  0.000000  2.604398
727   2 0.0000 20.835180  0.000000  7.813193
728   2 0.0000 20.835180  0.000000 13.021988
729   2 0.0000 20.835180  0.000000 18.230783
730   2 0.0000 20.835180  0.000000 23.439578
731   2 0.0000 20.835180  5.208795  2.604398
732   2 0.0000 20.835180  5.208795  7.813193
733   2 0.0000 20.835180  5.208795 13.021988
734   2 0.0000 20.835180  5.208795 18.230783
735   2 0.0000 20.835180  5.208795 23.439578
736   2 0.0000 20.835180 10.417590  2.604398
737   2 0.0000 20.835180 10.417590  7.813193
738   2 0.0000 20.835180 10.417590 13.021988
739   2 0.0000 20.835180 10.417590 18.230783
740   2 0.0000 20.835180 10.417590 23.439578
741   2 0.0000 20.835180 15.626385  2.604398
742   2 0.0000 20.835180 15.626385  7.813193
743   2 0.0000 20.835180 15.626385 13.021988
744   2 0.0000 20.835180 15.626385 18.230783
745   2 0.0000 20.835180 15.626385 23.439578
746   2 0.0000 20.835180 20.835180  2.604398
747   2 0.0000 20.835180 20.835180  7.813193
748   2 0.0000 20.835180 20.835180 13.021988
749   2 0.0000 20.835180 20.835180 18.230783
750   2 0.0000 20.835180 20.835180 23.439578
751   2 0.0000  2.604398  2.604398  2.604398
752   2 0.0000  2.604398  2.604398  7.813193
753   2 0.0000  2.604398  2.604398 13.021988
754   2 0.0000  2.604398  2.604398 18.230783
755   2 0.0000  2.604398  2.604398 23.439578
756   2 0.0000  2.604398  7.813193  2.604398
757   2 0.0000  2.604398  7.813193  7.813193
758   2 0.0000  2.604398  7.813193 13.021988
759   2 0.0000  2.604398  7.813193 18.230783
760   2 0.0000  2.604398  7.813193 23.439578
761   2 0.0000  2.604398 13.021988  2.604398
762   2 0.0000  2.604398 13.021988  7.813193
763   2 0.0000  2.604398 13.021988 13.021988
764   2 0.0000  2.604398 13.021988 18.230783
765   2 0.0000  2.604398 13.021988 23.439578
766   2 0.0000  2.604398 18.230783  2.604398
767   2 0.0000  2.604398 18.230783  7.813193
768   2 0.0000  2.604398 18.230783 13.021988
769   2 0.0000  2.604398 18.230783 18.230783
770   2 0.0000  2.604398 18.230783 23.439578
771   2 0.0000  2.604398 23.439578  2.604398
772   2 0.0000  2.604398 23.439578  7.813193
773   2 0.0000  2.604398 23.439578 13.021988
774   2 0.0000  2.604398 23.439578 18.230783
775   2 0.0000  2.604398 23.439578 23.439578
776   2 0.0000  7.813193  2.604398  2.604398
777   2 0.0000  7.813193  2.604398  7.813193
778   2 0.0000  7.813193  2.604398 13.021988
779   2 0.0000  7.813193  2.604398 18.230783
780   2 0.0000  7.813193  2.604398 23.439578
781   2 0.0000  7.813193  7.813193  2.604398
782   2 0.0000  7.813193  7.813193  7.813193
783   2 0.0000  7.813193  7.813193 13.021988
784   2 0.0000  7.813193  7.813193 18.230783
785   2 0.0000  7.813193  7.813193 23.439578
786   2 0.0000  7.813193 13.021988  2.604398
787   2 0.0000  7.813193 13.021988  7.813193
788   2 0.0000  7.813193 13.021988 13.021988
789   2 0.0000  7.813193 13.021988 18.230783
790   2 0.0000  7.813193 13.021988 23.439578
791   2 0.0000  7.813193 18.230783  2.604398
792   2 0.0000  7.813193 18.230783  7.813193
793   2 0.0000  7.813193 18.230783 13.021988
794   2 0.0000  7.813193 18.230783 18.230783
795   2 0.0000  7.813193 18.230783 23.439578
796   2 0.0000  7.813193 23.439578  2.604398
797   2 0.0000  7.813193 23.439578  7.813193
798   2 0.0000  7.813193 23.439578 13.021988
799   2 0.0000  7.813193 23.439578 18.230783
800   2 0.0000  7.813193 23.439578 23.439578
801   2 0.0000 13.021988  2.604398  2.604398
802   2 0.0000 13.021988  2.604398  7.813193
803   2 0.0000 13.021988  2.604398 13.021988
804   2 0.0000 13.021988  2.604398 18.230783
805   2 0.0000 13.021988  2.604398 23.439578
806   2 0.0000 13.021988  7.813193  2.604398
807   2 0.0000 13.021988  7.813193  7.813193
808   2 0.0000 13.021988  7.813193 13.021988
809   2 0.0000 13.021988  7.813193 18.230783
810   2 0.0000 13.021988  7.813193 23.439578
811   2 0.0000 13.021988 13.021988  2.604398
812   2 0.0000 13.021988 13.021988  7.813193
813   2 0.0000 13.021988 13.021988 13.021988
814   2 0.0000 13.021988 13.021988 18.230783
815   2 0.0000 13.021988 13.021988 23.439578
816   2 0.0000 13.021988 18.230783  2.604398
817   2 0.0000 13.021988 18.230783  7.813193
818   2 0.0000 13.021988 18.230783 13.021988
819   2 0.0000 13.021988 18.230783 18.230783
820   2 0.0000 13.021988 18.230783 23.439578
821   2 0.0000 13.021988 23.439578  2.604398
822   2 0.0000 13.021988 23.439578  7.813193
823   2 0.0000 13.021988 23.439578 13.021988
824   2 0.0000 13.021988 23.439578 18.230783
825   2 0.0000 13.021988 23.439578 23.439578
826   2 0.0000 18.230783  2.604398  2.604398
827   2 0.0000 18.230783  2.604398  7.813193
828   2 0.0000 18.230783  2.604398 13.021988
829   2 0.0000 18.230783  2.604398 18.230783
830   2 0.0000 18.230783  2.604398 23.439578
831   2 0.0000 18.230783  7.813193  2.604398
832   2 0.0000 18.230783  7.813193  7.813193
833   2 0.0000 18.230783  7.813193 13.021988
834   2 0.0000 18.230783  7.813193 18.230783
835   2 0.0000 18.230783  7.813193 23.439578
836   2 0.0000 18.230783 13.021988  2.604398
837   2 0.0000 18.230783 13.021988  7.813193
838   2 0.0000 18.230783 13.021988 13.021988
839   2 0.0000 18.230783 13.021988 18.230783
840   2 0.0000 18.230783 13.021988 23.439578
841   2 0.0000 18.230783 18.230783  2.604398
842   2 0.0000 18.230783 18.230783  7.813193
843   2 0.0000 18.230783 18.230783 13.021988
844   2 0.0000 18.230783 18.230783 18.230783
845   2 0.0000 18.230783 18.230783 23.439578
846   2 0.0000 18.230783 23.439578  2.604398
847   2 0.0000 18.230783 23.439578  7.813193
848   2 0.0000 18.230783 23.439578 13.021988
849   2 0.0000 18.230783 23.439578 18.230783
850   2 0.0000 18.230783 23.439578 23.439578
851   2 0.0000 23.439578  2.604398  2.604398
852   2 0.0000 23.439578  2.604398  7.813193
853   2 0.0000 23.439578  2.604398 13.021988
854   2 0.0000 23.439578  2.604398 18.230783
855   2 0.0000 23.439578  2.604398 23.439578
856   2 0.0000 23.439578  7.813193  2.604398
857   2 0.0000 23.439578  7.813193  7.813193
858   2 0.0000 23.439578  7.813193 13.021988
859   2 0.0000 23.439578  7.813193 18.230783
860   2 0.0000 23.439578  7.813193 23.439578
861   2 0.0000 23.439578 13.021988  2.604398
862   2 0.0000 23.439578 13.021988  7.813193
863   2 0.0000 23.439578 13.021988 13.021988
864   2 0.0000 23.439578 13.021988 18.230783
865   2 0.0000 23.439578 13.021988 23.439578
866   2 0.0000 23.439578 18.230783  2.604398
867   2 0.0000 23.439578 18.230783  7.813193
868   2 0.0000 23.439578 18.230783 13.021988
869   2 0.0000 23.439578 18.230783 18.230783
870   2 0.0000 23.439578 18.230783 23.439578
871   2 0.0000 23.439578 23.439578  2.604398
872   2 0.0000 23.439578 23.439578  7.813193
873   2 0.0000 23.439578 23.439578 13.021988
874   2 0.0000 23.439578 23.439578 18.230783
875   2 0.0000 23.439578 23.439578 23.439578
876   2 0.0000  2.604398  0.000000  0.000000
877   2 0.0000  2.604398  0.000000  5.208795
878   2 0.0000  2.604398  0.000000 10.417590
879   2 0.0000  2.604398  0.000000 15.626385
880   2 0.0000  2.604398  0.000000 20.835180
881   2 0.0000  2.604398  5.208795  0.000000
882   2 0.0000  2.604398  5.208795  5.208795
883   2 0.0000  2.604398  5.208795 10.417590
884   2 0.0000  2.604398  5.208795 15.626385
885   2 0.0000  2.604398  5.208795 20.835180
886   2 0.0000  2.604398 10.417590  0.000000
887   2 0.0000  2.604398 10.417590  5.208795
888   2 0.0000  2.604398 10.417590 10.417590
889   2 0.0000  2.604398 10.417590 15.626385
890   2 0.0000  2.604398 10.417590 20.835180
891   2 0.0000  2.604398 15.626385  0.000000
892   2 0.0000  2.604398 15.626385  5.208795
893   2 0.0000  2.604398 15.626385 10.417590
894   2 0.0000  2.604398 15.626385 15.626385
895   2 0.0000  2.604398 15.626385 20.835180
896   2 0.0000  2.604398 20.835180 -0.000000
897   2 0.0000  2.604398 20.835180  5.208795
898   2 0.0000  2.604398 20.835180 10.417590
899   2 0.0000  2.604398 20.835180 15.626385
900   2 0.0000  2.604398 20.835180 20.835180
901   2 0.0000  7.813193  0.000000  0.000000
902   2 0.0000  7.813193  0.000000  5.208795
903   2 0.0000  7.813193  0.000000 10.417590
904   2 0.0000  7.813193  0.000000 15.626385
905   2 0.0000  7.813193  0.000000 20.835180
906   2 0.0000  7.813193  5.208795  0.000000
907   2 0.0000  7.813193  5.208795  5.208795
908   2 0.0000  7.813193  5.208795 10.417590
909   2 0.0000  7.813193  5.208795 15.626385
910   2 0.0000  7.813193  5.208795 20.835180
911   2 0.0000  7.813193 10.417590  0.000000
912   2 0.0000  7.813193 10.417590  5.208795
913   2 0.0000  7.813193 10.417590 10.417590
914   2 0.0000  7.813193 10.417590 15.626385
915   2 0.0000  7.813193 10.417590 20.835180
916   2 0.0000  7.813193 15.626385  0.000000
917   2 0.0000  7.813193 15.626385  5.208795
918   2 0.0000  7.813193 15.626385 10.417590
919   2 0.0000  7.813193 15.626385 15.626385
920   2 0.0000  7.813193 15.626385 20.835180
921   2 0.0000  7.813193 20.835180  0.000000
922   2 0.0000  7.813193 20.835180  5.208795
923   2 0.0000  7.813193 20.835180 10.417590
924   2 0.0000  7.813193 20.835180 15.626385
925   2 0.0000  7.813193 20.835180 20.835180
926   2 0.0000 13.021988  0.000000  0.000000
927   2 0.0000 13.021988  0.000000  5.208795
928   2 0.0000 13.021988  0.000000 10.417590
929   2 0.0000 13.021988  0.000000 15.626385
930   2 0.0000 13.021988  0.000000 20.835180
931   2 0.0000 13.021988  5.208795  0.000000
932   2 0.0000 13.021988  5.208795  5.208795
933   2 0.0000 13.021988  5.208795 10.417590
934   2 0.0000 13.021988  5.208795 15.626385
935   2 0.0000 13.021988  5.208795 20.835180
936   2 0.0000 13.021988 10.417590  0.000000
937   2 0.0000 13.021988 10.417590  5.208795
938   2 0.0000 13.021988 10.417590 10.417590
939   2 0.0000 13.021988 10.417590 15.626385
940   2 0.0000 13.021988 10.417590 20.835180
941   2 0.0000 13.021988 15.626385  0.000000
942   2 0.0000 13.021988 15.626385  5.208795
943   2 0.0000 13.021988 15.626385 10.417590
944   2 0.0000 13.021988 15.626385 15.626385
945   2 0.0000 13.021988 15.626385 20.835180
946   2 0.0000 13.021988 20.835180  0.000000
947   2 0.0000 13.021988 20.835180  5.208795
948   2 0.0000 13.021988 20.835180 10.417590
949   2 0.0000 13.021988 20.835180 15.626385
950   2 0.0000 13.021988 20.835180 20.835180
951   2 0.0000 18.230783  0.000000  0.000000
952   2 0.0000 18.230783  0.000000  5.208795
953   2 0.0000 18.230783  0.000000 10.417590
954   2 0.0000 18.230783  0.000000 15.626385
955   2 0.0000 18.230783  0.000000 20.835180
956   2 0.0000 18.230783  5.208795  0.000000
957   2 0.0000 18.230783  5.208795  5.208795
958   2 0.0000 18.230783  5.208795 10.417590
959   2 0.0000 18.230783  5.208795 15.626385
960   2 0.0000 18.230783  5.208795 20.835180
961   2 0.0000 18.230783 10.417590  0.000000
962   2 0.0000 18.230783 10.417590  5.208795
963   2 0.0000 18.230783 10.417590 10.417590
964   2 0.0000 18.230783 10.417590 15.626385
965   2 0.0000 18.230783 10.417590 20.835180
966   2 0.0000 18.230783 15.626385  0.000000
967   2 0.0000 18.230783 15.626385  5.208795
968   2 0.0000 18.230783 15.626385 10.417590
969   2 0.0000 18.230783 15.626385 15.626385
970   2 0.0000 18.230783 15.626385 20.835180
971   2 0.0000 18.230783 20.835180  0.000000
972   2 0.0000 18.230783 20.835180  5.208795
973   2 0.0000 18.230783 20.835180 10.417590
974   2 0.0000 18.230783 20.835180 15.626385
975   2 0.0000 18.230783 20.835180 20.835180
976   2 0.0000 23.439578  0.000000  0.000000
977   2 0.0000 23.439578  0.000000  5.208795
978   2 0.0000 23.439578  0.000000 10.417590
979   2 0.0000 23.439578  0.000000 15.626385
980   2 0.0000 23.439578  0.000000 20.835180
981   2 0.0000 23.439578  5.208795  0.000000
982   2 0.0000 23.439578  5.208795  5.208795
983   2 0.0000 23.439578  5.208795 10.417590
984   2 0.0000 23.439578  5.208795 15.626385
985   2 0.0000 23.439578  5.208795 20.835180
986   2 0.0000 23.439578 10.417590  0.000000
987   2 0.0000 23.439578 10.417590  5.208795
988   2 0.0000 23.439578 10.417590 10.417590
989   2 0.0000 23.439578 10.417590 15.626385
990   2 0.0000 23.439578 10.417590 20.835180
991   2 0.0000 23.439578 15.626385  0.000000
992   2 0.0000 23.439578 15.626385  5.208795
993   2 0.0000 23.439578 15.626385 10.417590
994   2 0.0000 23.439578 15.626385 15.626385
995   2 0.0000 23.439578 15.626385 20.835180
996   2 0.0000 23.439578 20.835180  0.000000
997   2 0.0000 23.439578 20.835180  5.208795
998   2 0.0000 23.439578 20.835180 10.417590
999   2 0.0000 23.439578 20.835180 15.626385
1000  2 0.0000 23.439578 20.835180 20.835180

