Generated by pymatgen.io.lammps.data.LammpsData

500  atoms

  3  atom types

0.000000 34.022873  xlo xhi
0.000000 16.712534  ylo yhi
0.000000 14.791068  zlo zhi
29.635234 29.635235 7.780311  xy xz yz

Masses

1   85.46780
2  164.93032
3   15.99940

Atoms

1    1 0.0000  0.000000  0.000000  0.000000
2    1 0.0000  5.927047  1.556062  2.958214
3    1 0.0000 11.854094  3.112124  5.916427
4    1 0.0000 17.781141  4.668187  8.874641
5    1 0.0000 23.708188  6.224249 11.832855
6    1 0.0000  5.927047  3.342507 -0.000000
7    1 0.0000 11.854094  4.898569  2.958214
8    1 0.0000 17.781141  6.454631  5.916427
9    1 0.0000 23.708188  8.010693  8.874641
10   1 0.0000 29.635235  9.566755 11.832855
11   1 0.0000 11.854094  6.685013 -0.000000
12   1 0.0000 17.781141  8.241076  2.958214
13   1 0.0000 23.708188  9.797138  5.916427
14   1 0.0000 29.635235 11.353200  8.874641
15   1 0.0000 35.562282 12.909262 11.832855
16   1 0.0000 47.416375 17.807831 14.791068
17   1 0.0000 23.708187 11.583582  2.958214
18   1 0.0000 29.635234 13.139645  5.916427
19   1 0.0000 35.562281 14.695707  8.874641
20   1 0.0000 41.489328 16.251769 11.832855
21   1 0.0000 23.708187 13.370027 -0.000000
22   1 0.0000 29.635234 14.926089  2.958214
23   1 0.0000 35.562281 16.482151  5.916427
24   1 0.0000 41.489328 18.038213  8.874641
25   1 0.0000 47.416375 19.594276 11.832855
26   1 0.0000  6.804575  0.000000 -0.000000
27   1 0.0000 12.731622  1.556062  2.958214
28   1 0.0000 18.658669  3.112124  5.916427
29   1 0.0000 24.585716  4.668187  8.874641
30   1 0.0000 30.512763  6.224249 11.832855
31   1 0.0000 12.731621  3.342507 -0.000000
32   1 0.0000 18.658668  4.898569  2.958214
33   1 0.0000 24.585715  6.454631  5.916427
34   1 0.0000 30.512762  8.010693  8.874641
35   1 0.0000 36.439809  9.566755 11.832855
36   1 0.0000 18.658668  6.685013 -0.000000
37   1 0.0000 24.585715  8.241076  2.958214
38   1 0.0000 30.512762  9.797138  5.916427
39   1 0.0000 36.439809 11.353200  8.874641
40   1 0.0000 42.366856 12.909262 11.832855
41   1 0.0000 54.220950 17.807831 14.791068
42   1 0.0000 30.512762 11.583582  2.958214
43   1 0.0000 36.439809 13.139645  5.916427
44   1 0.0000 42.366856 14.695707  8.874641
45   1 0.0000 48.293903 16.251769 11.832855
46   1 0.0000 60.147997 21.150338 14.791068
47   1 0.0000 36.439809 14.926089  2.958214
48   1 0.0000 42.366856 16.482151  5.916427
49   1 0.0000 48.293903 18.038213  8.874641
50   1 0.0000 54.220950 19.594276 11.832855
51   1 0.0000 13.609149  0.000000 -0.000000
52   1 0.0000 19.536196  1.556062  2.958214
53   1 0.0000 25.463243  3.112124  5.916427
54   1 0.0000 31.390290  4.668187  8.874641
55   1 0.0000 37.317337  6.224249 11.832855
56   1 0.0000 19.536196  3.342507 -0.000000
57   1 0.0000 25.463243  4.898569  2.958214
58   1 0.0000 31.390290  6.454631  5.916427
59   1 0.0000 37.317337  8.010693  8.874641
60   1 0.0000 43.244384  9.566755 11.832855
61   1 0.0000 25.463243  6.685013 -0.000000
62   1 0.0000 31.390290  8.241076  2.958214
63   1 0.0000 37.317337  9.797138  5.916427
64   1 0.0000 43.244384 11.353200  8.874641
65   1 0.0000 49.171431 12.909262 11.832855
66   1 0.0000 31.390290 10.027520 -0.000000
67   1 0.0000 37.317337 11.583582  2.958214
68   1 0.0000 43.244384 13.139645  5.916427
69   1 0.0000 49.171431 14.695707  8.874641
70   1 0.0000 55.098478 16.251769 11.832855
71   1 0.0000 37.317336 13.370027 -0.000000
72   1 0.0000 43.244383 14.926089  2.958214
73   1 0.0000 49.171430 16.482151  5.916427
74   1 0.0000 55.098477 18.038213  8.874641
75   1 0.0000 61.025524 19.594276 11.832855
76   1 0.0000 20.413724  0.000000 -0.000000
77   1 0.0000 26.340771  1.556062  2.958214
78   1 0.0000 32.267818  3.112124  5.916427
79   1 0.0000 38.194865  4.668187  8.874641
80   1 0.0000 44.121912  6.224249 11.832855
81   1 0.0000 26.340771  3.342507 -0.000000
82   1 0.0000 32.267818  4.898569  2.958214
83   1 0.0000 38.194865  6.454631  5.916427
84   1 0.0000 44.121912  8.010693  8.874641
85   1 0.0000 50.048959  9.566755 11.832855
86   1 0.0000 32.267817  6.685013 -0.000000
87   1 0.0000 38.194864  8.241076  2.958214
88   1 0.0000 44.121911  9.797138  5.916427
89   1 0.0000 50.048958 11.353200  8.874641
90   1 0.0000 55.976005 12.909262 11.832855
91   1 0.0000 67.830099 17.807831 14.791068
92   1 0.0000 44.121911 11.583582  2.958214
93   1 0.0000 50.048958 13.139645  5.916427
94   1 0.0000 55.976005 14.695707  8.874641
95   1 0.0000 61.903052 16.251769 11.832855
96   1 0.0000 73.757146 21.150338 14.791068
97   1 0.0000 50.048958 14.926089  2.958214
98   1 0.0000 55.976005 16.482151  5.916427
99   1 0.0000 61.903052 18.038213  8.874641
100  1 0.0000 67.830099 19.594276 11.832855
101  1 0.0000 27.218298  0.000000 -0.000000
102  1 0.0000 33.145345  1.556062  2.958214
103  1 0.0000 39.072392  3.112124  5.916427
104  1 0.0000 44.999439  4.668187  8.874641
105  1 0.0000 50.926486  6.224249 11.832855
106  1 0.0000 33.145345  3.342507 -0.000000
107  1 0.0000 39.072392  4.898569  2.958214
108  1 0.0000 44.999439  6.454631  5.916427
109  1 0.0000 50.926486  8.010693  8.874641
110  1 0.0000 56.853533  9.566755 11.832855
111  1 0.0000 39.072392  6.685013 -0.000000
112  1 0.0000 44.999439  8.241076  2.958214
113  1 0.0000 50.926486  9.797138  5.916427
114  1 0.0000 56.853533 11.353200  8.874641
115  1 0.0000 62.780580 12.909262 11.832855
116  1 0.0000 74.634674 17.807831 14.791068
117  1 0.0000 50.926486 11.583582  2.958214
118  1 0.0000 56.853533 13.139645  5.916427
119  1 0.0000 62.780580 14.695707  8.874641
120  1 0.0000 68.707627 16.251769 11.832855
121  1 0.0000 50.926486 13.370027 -0.000000
122  1 0.0000 56.853533 14.926089  2.958214
123  1 0.0000 62.780580 16.482151  5.916427
124  1 0.0000 68.707627 18.038213  8.874641
125  1 0.0000 74.634674 19.594276 11.832855
126  2 0.0000  9.329334  2.449284  1.479107
127  2 0.0000 15.256381  4.005347  4.437321
128  2 0.0000 21.183428  5.561409  7.395534
129  2 0.0000 27.110475  7.117471 10.353748
130  2 0.0000 33.037522  8.673533 13.311962
131  2 0.0000 15.256381  5.791791  1.479107
132  2 0.0000 21.183428  7.347853  4.437321
133  2 0.0000 27.110475  8.903916  7.395534
134  2 0.0000 33.037522 10.459978 10.353748
135  2 0.0000 38.964569 12.016040 13.311962
136  2 0.0000 21.183428  9.134298  1.479107
137  2 0.0000 27.110475 10.690360  4.437321
138  2 0.0000 33.037522 12.246422  7.395534
139  2 0.0000 38.964569 13.802484 10.353748
140  2 0.0000 44.891616 15.358547 13.311962
141  2 0.0000 27.110475 12.476805  1.479107
142  2 0.0000 33.037522 14.032867  4.437321
143  2 0.0000 38.964569 15.588929  7.395534
144  2 0.0000 44.891616 17.144991 10.353748
145  2 0.0000 50.818663 18.701053 13.311962
146  2 0.0000 33.037521 15.819311  1.479107
147  2 0.0000 38.964568 17.375374  4.437321
148  2 0.0000 44.891615 18.931436  7.395534
149  2 0.0000 50.818662 20.487498 10.353748
150  2 0.0000 56.745709 22.043560 13.311962
151  2 0.0000 16.133909  2.449284  1.479107
152  2 0.0000 22.060956  4.005347  4.437321
153  2 0.0000 27.988003  5.561409  7.395534
154  2 0.0000 33.915050  7.117471 10.353748
155  2 0.0000 39.842097  8.673533 13.311962
156  2 0.0000 22.060956  5.791791  1.479107
157  2 0.0000 27.988003  7.347853  4.437321
158  2 0.0000 33.915050  8.903916  7.395534
159  2 0.0000 39.842097 10.459978 10.353748
160  2 0.0000 45.769144 12.016040 13.311962
161  2 0.0000 27.988002  9.134298  1.479107
162  2 0.0000 33.915049 10.690360  4.437321
163  2 0.0000 39.842096 12.246422  7.395534
164  2 0.0000 45.769143 13.802484 10.353748
165  2 0.0000 51.696190 15.358547 13.311962
166  2 0.0000 33.915049 12.476805  1.479107
167  2 0.0000 39.842096 14.032867  4.437321
168  2 0.0000 45.769143 15.588929  7.395534
169  2 0.0000 51.696190 17.144991 10.353748
170  2 0.0000 57.623237 18.701053 13.311962
171  2 0.0000 39.842096 15.819311  1.479107
172  2 0.0000 45.769143 17.375374  4.437321
173  2 0.0000 51.696190 18.931436  7.395534
174  2 0.0000 57.623237 20.487498 10.353748
175  2 0.0000 63.550284 22.043560 13.311962
176  2 0.0000 22.938483  2.449284  1.479107
177  2 0.0000 28.865530  4.005347  4.437321
178  2 0.0000 34.792577  5.561409  7.395534
179  2 0.0000 40.719624  7.117471 10.353748
180  2 0.0000 46.646671  8.673533 13.311962
181  2 0.0000 28.865530  5.791791  1.479107
182  2 0.0000 34.792577  7.347853  4.437321
183  2 0.0000 40.719624  8.903916  7.395534
184  2 0.0000 46.646671 10.459978 10.353748
185  2 0.0000 52.573718 12.016040 13.311962
186  2 0.0000 34.792577  9.134298  1.479107
187  2 0.0000 40.719624 10.690360  4.437321
188  2 0.0000 46.646671 12.246422  7.395534
189  2 0.0000 52.573718 13.802484 10.353748
190  2 0.0000 58.500765 15.358547 13.311962
191  2 0.0000 40.719624 12.476805  1.479107
192  2 0.0000 46.646671 14.032867  4.437321
193  2 0.0000 52.573718 15.588929  7.395534
194  2 0.0000 58.500765 17.144991 10.353748
195  2 0.0000 64.427812 18.701053 13.311962
196  2 0.0000 46.646671 15.819311  1.479107
197  2 0.0000 52.573718 17.375374  4.437321
198  2 0.0000 58.500765 18.931436  7.395534
199  2 0.0000 64.427812 20.487498 10.353748
200  2 0.0000 70.354859 22.043560 13.311962
201  2 0.0000 29.743058  2.449284  1.479107
202  2 0.0000 35.670105  4.005347  4.437321
203  2 0.0000 41.597152  5.561409  7.395534
204  2 0.0000 47.524199  7.117471 10.353748
205  2 0.0000 53.451246  8.673533 13.311962
206  2 0.0000 35.670105  5.791791  1.479107
207  2 0.0000 41.597152  7.347853  4.437321
208  2 0.0000 47.524199  8.903916  7.395534
209  2 0.0000 53.451246 10.459978 10.353748
210  2 0.0000 59.378293 12.016040 13.311962
211  2 0.0000 41.597152  9.134298  1.479107
212  2 0.0000 47.524199 10.690360  4.437321
213  2 0.0000 53.451246 12.246422  7.395534
214  2 0.0000 59.378293 13.802484 10.353748
215  2 0.0000 65.305340 15.358547 13.311962
216  2 0.0000 47.524198 12.476805  1.479107
217  2 0.0000 53.451245 14.032867  4.437321
218  2 0.0000 59.378292 15.588929  7.395534
219  2 0.0000 65.305339 17.144991 10.353748
220  2 0.0000 71.232386 18.701053 13.311962
221  2 0.0000 53.451245 15.819311  1.479107
222  2 0.0000 59.378292 17.375374  4.437321
223  2 0.0000 65.305339 18.931436  7.395534
224  2 0.0000 71.232386 20.487498 10.353748
225  2 0.0000 77.159433 22.043560 13.311962
226  2 0.0000 36.547633  2.449284  1.479107
227  2 0.0000 42.474680  4.005347  4.437321
228  2 0.0000 48.401726  5.561409  7.395534
229  2 0.0000 54.328773  7.117471 10.353748
230  2 0.0000 60.255820  8.673533 13.311962
231  2 0.0000 42.474679  5.791791  1.479107
232  2 0.0000 48.401726  7.347853  4.437321
233  2 0.0000 54.328773  8.903916  7.395534
234  2 0.0000 60.255820 10.459978 10.353748
235  2 0.0000 66.182867 12.016040 13.311962
236  2 0.0000 48.401726  9.134298  1.479107
237  2 0.0000 54.328773 10.690360  4.437321
238  2 0.0000 60.255820 12.246422  7.395534
239  2 0.0000 66.182867 13.802484 10.353748
240  2 0.0000 72.109914 15.358547 13.311962
241  2 0.0000 54.328773 12.476805  1.479107
242  2 0.0000 60.255820 14.032867  4.437321
243  2 0.0000 66.182867 15.588929  7.395534
244  2 0.0000 72.109914 17.144991 10.353748
245  2 0.0000 78.036961 18.701053 13.311962
246  2 0.0000 60.255820 15.819311  1.479107
247  2 0.0000 66.182867 17.375374  4.437321
248  2 0.0000 72.109914 18.931436  7.395534
249  2 0.0000 78.036961 20.487498 10.353748
250  2 0.0000 83.964008 22.043560 13.311962
251  3 0.0000 14.461226  3.796590  2.292736
252  3 0.0000 20.388273  5.352652  5.250949
253  3 0.0000 26.315320  6.908714  8.209163
254  3 0.0000 32.242367  8.464776 11.167377
255  3 0.0000 38.169414 10.020839 14.125591
256  3 0.0000 20.388273  7.139097  2.292736
257  3 0.0000 26.315320  8.695159  5.250949
258  3 0.0000 32.242367 10.251221  8.209163
259  3 0.0000 38.169414 11.807283 11.167377
260  3 0.0000 44.096461 13.363345 14.125591
261  3 0.0000 26.315320 10.481603  2.292736
262  3 0.0000 32.242367 12.037666  5.250949
263  3 0.0000 38.169414 13.593728  8.209163
264  3 0.0000 44.096461 15.149790 11.167377
265  3 0.0000 50.023508 16.705852 14.125591
266  3 0.0000 32.242366 13.824110  2.292736
267  3 0.0000 38.169413 15.380172  5.250949
268  3 0.0000 44.096460 16.936234  8.209163
269  3 0.0000 50.023507 18.492297 11.167377
270  3 0.0000 55.950554 20.048359 14.125591
271  3 0.0000 38.169413 17.166617  2.292736
272  3 0.0000 44.096460 18.722679  5.250949
273  3 0.0000 50.023507 20.278741  8.209163
274  3 0.0000 55.950554 21.834803 11.167377
275  3 0.0000 61.877601 23.390866 14.125591
276  3 0.0000 21.265800  3.796590  2.292736
277  3 0.0000 27.192847  5.352652  5.250949
278  3 0.0000 33.119894  6.908714  8.209163
279  3 0.0000 39.046941  8.464776 11.167377
280  3 0.0000 44.973988 10.020839 14.125591
281  3 0.0000 27.192847  7.139097  2.292736
282  3 0.0000 33.119894  8.695159  5.250949
283  3 0.0000 39.046941 10.251221  8.209163
284  3 0.0000 44.973988 11.807283 11.167377
285  3 0.0000 50.901035 13.363345 14.125591
286  3 0.0000 33.119894 10.481603  2.292736
287  3 0.0000 39.046941 12.037666  5.250949
288  3 0.0000 44.973988 13.593728  8.209163
289  3 0.0000 50.901035 15.149790 11.167377
290  3 0.0000 56.828082 16.705852 14.125591
291  3 0.0000 39.046941 13.824110  2.292736
292  3 0.0000 44.973988 15.380172  5.250949
293  3 0.0000 50.901035 16.936234  8.209163
294  3 0.0000 56.828082 18.492297 11.167377
295  3 0.0000 62.755129 20.048359 14.125591
296  3 0.0000 44.973988 17.166617  2.292736
297  3 0.0000 50.901035 18.722679  5.250949
298  3 0.0000 56.828082 20.278741  8.209163
299  3 0.0000 62.755129 21.834803 11.167377
300  3 0.0000 68.682176 23.390866 14.125591
301  3 0.0000 28.070375  3.796590  2.292736
302  3 0.0000 33.997422  5.352652  5.250949
303  3 0.0000 39.924469  6.908714  8.209163
304  3 0.0000 45.851516  8.464776 11.167377
305  3 0.0000 51.778563 10.020839 14.125591
306  3 0.0000 33.997422  7.139097  2.292736
307  3 0.0000 39.924469  8.695159  5.250949
308  3 0.0000 45.851516 10.251221  8.209163
309  3 0.0000 51.778563 11.807283 11.167377
310  3 0.0000 57.705610 13.363345 14.125591
311  3 0.0000 39.924469 10.481603  2.292736
312  3 0.0000 45.851516 12.037666  5.250949
313  3 0.0000 51.778563 13.593728  8.209163
314  3 0.0000 57.705610 15.149790 11.167377
315  3 0.0000 63.632657 16.705852 14.125591
316  3 0.0000 45.851516 13.824110  2.292736
317  3 0.0000 51.778563 15.380172  5.250949
318  3 0.0000 57.705609 16.936234  8.209163
319  3 0.0000 63.632656 18.492297 11.167377
320  3 0.0000 69.559703 20.048359 14.125591
321  3 0.0000 51.778562 17.166617  2.292736
322  3 0.0000 57.705609 18.722679  5.250949
323  3 0.0000 63.632656 20.278741  8.209163
324  3 0.0000 69.559703 21.834803 11.167377
325  3 0.0000 75.486750 23.390866 14.125591
326  3 0.0000 34.874950  3.796590  2.292736
327  3 0.0000 40.801997  5.352652  5.250949
328  3 0.0000 46.729044  6.908714  8.209163
329  3 0.0000 52.656091  8.464776 11.167377
330  3 0.0000 58.583138 10.020839 14.125591
331  3 0.0000 40.801996  7.139097  2.292736
332  3 0.0000 46.729043  8.695159  5.250949
333  3 0.0000 52.656090 10.251221  8.209163
334  3 0.0000 58.583137 11.807283 11.167377
335  3 0.0000 64.510184 13.363345 14.125591
336  3 0.0000 46.729043 10.481603  2.292736
337  3 0.0000 52.656090 12.037666  5.250949
338  3 0.0000 58.583137 13.593728  8.209163
339  3 0.0000 64.510184 15.149790 11.167377
340  3 0.0000 70.437231 16.705852 14.125591
341  3 0.0000 52.656090 13.824110  2.292736
342  3 0.0000 58.583137 15.380172  5.250949
343  3 0.0000 64.510184 16.936234  8.209163
344  3 0.0000 70.437231 18.492297 11.167377
345  3 0.0000 76.364278 20.048359 14.125591
346  3 0.0000 58.583137 17.166617  2.292736
347  3 0.0000 64.510184 18.722679  5.250949
348  3 0.0000 70.437231 20.278741  8.209163
349  3 0.0000 76.364278 21.834803 11.167377
350  3 0.0000 82.291325 23.390866 14.125591
351  3 0.0000 41.679524  3.796590  2.292736
352  3 0.0000 47.606571  5.352652  5.250949
353  3 0.0000 53.533618  6.908714  8.209163
354  3 0.0000 59.460665  8.464776 11.167377
355  3 0.0000 65.387712 10.020839 14.125591
356  3 0.0000 47.606571  7.139097  2.292736
357  3 0.0000 53.533618  8.695159  5.250949
358  3 0.0000 59.460665 10.251221  8.209163
359  3 0.0000 65.387712 11.807283 11.167377
360  3 0.0000 71.314759 13.363345 14.125591
361  3 0.0000 53.533618 10.481603  2.292736
362  3 0.0000 59.460665 12.037666  5.250949
363  3 0.0000 65.387712 13.593728  8.209163
364  3 0.0000 71.314759 15.149790 11.167377
365  3 0.0000 77.241806 16.705852 14.125591
366  3 0.0000 59.460665 13.824110  2.292736
367  3 0.0000 65.387712 15.380172  5.250949
368  3 0.0000 71.314759 16.936234  8.209163
369  3 0.0000 77.241806 18.492297 11.167377
370  3 0.0000 83.168853 20.048359 14.125591
371  3 0.0000 65.387711 17.166617  2.292736
372  3 0.0000 71.314758 18.722679  5.250949
373  3 0.0000 77.241805 20.278741  8.209163
374  3 0.0000 83.168852 21.834803 11.167377
375  3 0.0000 89.095899 23.390866 14.125591
376  3 0.0000  4.197442  1.101979  0.665478
377  3 0.0000 10.124489  2.658041  3.623692
378  3 0.0000 16.051536  4.214103  6.581905
379  3 0.0000 21.978583  5.770166  9.540119
380  3 0.0000 27.905630  7.326228 12.498333
381  3 0.0000 10.124489  4.444486  0.665478
382  3 0.0000 16.051536  6.000548  3.623692
383  3 0.0000 21.978583  7.556610  6.581905
384  3 0.0000 27.905630  9.112672  9.540119
385  3 0.0000 33.832677 10.668734 12.498333
386  3 0.0000 16.051536  7.786993  0.665478
387  3 0.0000 21.978583  9.343055  3.623692
388  3 0.0000 27.905630 10.899117  6.581905
389  3 0.0000 33.832677 12.455179  9.540119
390  3 0.0000 39.759724 14.011241 12.498333
391  3 0.0000 21.978583 11.129499  0.665478
392  3 0.0000 27.905630 12.685561  3.623692
393  3 0.0000 33.832677 14.241624  6.581905
394  3 0.0000 39.759724 15.797686  9.540119
395  3 0.0000 45.686771 17.353748 12.498333
396  3 0.0000 27.905630 14.472006  0.665478
397  3 0.0000 33.832677 16.028068  3.623692
398  3 0.0000 39.759724 17.584130  6.581905
399  3 0.0000 45.686771 19.140193  9.540119
400  3 0.0000 51.613818 20.696255 12.498333
401  3 0.0000 11.002017  1.101979  0.665478
402  3 0.0000 16.929064  2.658041  3.623692
403  3 0.0000 22.856111  4.214103  6.581905
404  3 0.0000 28.783158  5.770166  9.540119
405  3 0.0000 34.710205  7.326228 12.498333
406  3 0.0000 16.929064  4.444486  0.665478
407  3 0.0000 22.856111  6.000548  3.623692
408  3 0.0000 28.783158  7.556610  6.581905
409  3 0.0000 34.710205  9.112672  9.540119
410  3 0.0000 40.637252 10.668734 12.498333
411  3 0.0000 22.856111  7.786993  0.665478
412  3 0.0000 28.783158  9.343055  3.623692
413  3 0.0000 34.710205 10.899117  6.581905
414  3 0.0000 40.637252 12.455179  9.540119
415  3 0.0000 46.564299 14.011241 12.498333
416  3 0.0000 28.783157 11.129499  0.665478
417  3 0.0000 34.710204 12.685561  3.623692
418  3 0.0000 40.637251 14.241624  6.581905
419  3 0.0000 46.564298 15.797686  9.540119
420  3 0.0000 52.491345 17.353748 12.498333
421  3 0.0000 34.710204 14.472006  0.665478
422  3 0.0000 40.637251 16.028068  3.623692
423  3 0.0000 46.564298 17.584130  6.581905
424  3 0.0000 52.491345 19.140193  9.540119
425  3 0.0000 58.418392 20.696255 12.498333
426  3 0.0000 17.806592  1.101979  0.665478
427  3 0.0000 23.733639  2.658041  3.623692
428  3 0.0000 29.660686  4.214103  6.581905
429  3 0.0000 35.587733  5.770166  9.540119
430  3 0.0000 41.514780  7.326228 12.498333
431  3 0.0000 23.733638  4.444486  0.665478
432  3 0.0000 29.660685  6.000548  3.623692
433  3 0.0000 35.587732  7.556610  6.581905
434  3 0.0000 41.514779  9.112672  9.540119
435  3 0.0000 47.441826 10.668734 12.498333
436  3 0.0000 29.660685  7.786993  0.665478
437  3 0.0000 35.587732  9.343055  3.623692
438  3 0.0000 41.514779 10.899117  6.581905
439  3 0.0000 47.441826 12.455179  9.540119
440  3 0.0000 53.368873 14.011241 12.498333
441  3 0.0000 35.587732 11.129499  0.665478
442  3 0.0000 41.514779 12.685561  3.623692
443  3 0.0000 47.441826 14.241624  6.581905
444  3 0.0000 53.368873 15.797686  9.540119
445  3 0.0000 59.295920 17.353748 12.498333
446  3 0.0000 41.514779 14.472006  0.665478
447  3 0.0000 47.441826 16.028068  3.623692
448  3 0.0000 53.368873 17.584130  6.581905
449  3 0.0000 59.295920 19.140193  9.540119
450  3 0.0000 65.222967 20.696255 12.498333
451  3 0.0000 24.611166  1.101979  0.665478
452  3 0.0000 30.538213  2.658041  3.623692
453  3 0.0000 36.465260  4.214103  6.581905
454  3 0.0000 42.392307  5.770166  9.540119
455  3 0.0000 48.319354  7.326228 12.498333
456  3 0.0000 30.538213  4.444486  0.665478
457  3 0.0000 36.465260  6.000548  3.623692
458  3 0.0000 42.392307  7.556610  6.581905
459  3 0.0000 48.319354  9.112672  9.540119
460  3 0.0000 54.246401 10.668734 12.498333
461  3 0.0000 36.465260  7.786993  0.665478
462  3 0.0000 42.392307  9.343055  3.623692
463  3 0.0000 48.319354 10.899117  6.581905
464  3 0.0000 54.246401 12.455179  9.540119
465  3 0.0000 60.173448 14.011241 12.498333
466  3 0.0000 42.392307 11.129499  0.665478
467  3 0.0000 48.319354 12.685561  3.623692
468  3 0.0000 54.246401 14.241624  6.581905
469  3 0.0000 60.173448 15.797686  9.540119
470  3 0.0000 66.100495 17.353748 12.498333
471  3 0.0000 48.319353 14.472006  0.665478
472  3 0.0000 54.246400 16.028068  3.623692
473  3 0.0000 60.173447 17.584130  6.581905
474  3 0.0000 66.100494 19.140193  9.540119
475  3 0.0000 72.027541 20.696255 12.498333
476  3 0.0000 31.415741  1.101979  0.665478
477  3 0.0000 37.342788  2.658041  3.623692
478  3 0.0000 43.269835  4.214103  6.581905
479  3 0.0000 49.196882  5.770166  9.540119
480  3 0.0000 55.123929  7.326228 12.498333
481  3 0.0000 37.342788  4.444486  0.665478
482  3 0.0000 43.269835  6.000548  3.623692
483  3 0.0000 49.196882  7.556610  6.581905
484  3 0.0000 55.123929  9.112672  9.540119
485  3 0.0000 61.050976 10.668734 12.498333
486  3 0.0000 43.269834  7.786993  0.665478
487  3 0.0000 49.196881  9.343055  3.623692
488  3 0.0000 55.123928 10.899117  6.581905
489  3 0.0000 61.050975 12.455179  9.540119
490  3 0.0000 66.978022 14.011241 12.498333
491  3 0.0000 49.196881 11.129499  0.665478
492  3 0.0000 55.123928 12.685561  3.623692
493  3 0.0000 61.050975 14.241624  6.581905
494  3 0.0000 66.978022 15.797686  9.540119
495  3 0.0000 72.905069 17.353748 12.498333
496  3 0.0000 55.123928 14.472006  0.665478
497  3 0.0000 61.050975 16.028068  3.623692
498  3 0.0000 66.978022 17.584130  6.581905
499  3 0.0000 72.905069 19.140193  9.540119
500  3 0.0000 78.832116 20.696255 12.498333

