Generated by pymatgen.io.lammps.data.LammpsData

384  atoms

  2  atom types

0.000000 15.703590  xlo xhi
0.000000 21.829745  ylo yhi
0.000000 14.752154  zlo zhi

Masses

1   28.0855
2  102.9055

Atoms

1    1 0.0000  0.981474  1.510357  6.592258
2    1 0.0000  0.981474  1.510357 13.968335
3    1 0.0000  0.981474  6.967793  6.592258
4    1 0.0000  0.981474  6.967793 13.968335
5    1 0.0000  0.981474 12.425230  6.592258
6    1 0.0000  0.981474 12.425230 13.968335
7    1 0.0000  0.981474 17.882666  6.592258
8    1 0.0000  0.981474 17.882666 13.968335
9    1 0.0000  4.907372  1.510357  6.592258
10   1 0.0000  4.907372  1.510357 13.968335
11   1 0.0000  4.907372  6.967793  6.592258
12   1 0.0000  4.907372  6.967793 13.968335
13   1 0.0000  4.907372 12.425230  6.592258
14   1 0.0000  4.907372 12.425230 13.968335
15   1 0.0000  4.907372 17.882666  6.592258
16   1 0.0000  4.907372 17.882666 13.968335
17   1 0.0000  8.833270  1.510357  6.592258
18   1 0.0000  8.833270  1.510357 13.968335
19   1 0.0000  8.833270  6.967793  6.592258
20   1 0.0000  8.833270  6.967793 13.968335
21   1 0.0000  8.833270 12.425230  6.592258
22   1 0.0000  8.833270 12.425230 13.968335
23   1 0.0000  8.833270 17.882666  6.592258
24   1 0.0000  8.833270 17.882666 13.968335
25   1 0.0000 12.759167  1.510357  6.592258
26   1 0.0000 12.759167  1.510357 13.968335
27   1 0.0000 12.759167  6.967793  6.592258
28   1 0.0000 12.759167  6.967793 13.968335
29   1 0.0000 12.759167 12.425230  6.592258
30   1 0.0000 12.759167 12.425230 13.968335
31   1 0.0000 12.759167 17.882666  6.592258
32   1 0.0000 12.759167 17.882666 13.968335
33   1 0.0000  2.944423  3.947079  0.783819
34   1 0.0000  2.944423  3.947079  8.159895
35   1 0.0000  2.944423  9.404515  0.783819
36   1 0.0000  2.944423  9.404515  8.159895
37   1 0.0000  2.944423 14.861951  0.783819
38   1 0.0000  2.944423 14.861951  8.159895
39   1 0.0000  2.944423 20.319388  0.783819
40   1 0.0000  2.944423 20.319388  8.159895
41   1 0.0000  6.870321  3.947079  0.783819
42   1 0.0000  6.870321  3.947079  8.159895
43   1 0.0000  6.870321  9.404515  0.783819
44   1 0.0000  6.870321  9.404515  8.159895
45   1 0.0000  6.870321 14.861951  0.783819
46   1 0.0000  6.870321 14.861951  8.159895
47   1 0.0000  6.870321 20.319388  0.783819
48   1 0.0000  6.870321 20.319388  8.159895
49   1 0.0000 10.796218  3.947079  0.783819
50   1 0.0000 10.796218  3.947079  8.159895
51   1 0.0000 10.796218  9.404515  0.783819
52   1 0.0000 10.796218  9.404515  8.159895
53   1 0.0000 10.796218 14.861951  0.783819
54   1 0.0000 10.796218 14.861951  8.159895
55   1 0.0000 10.796218 20.319388  0.783819
56   1 0.0000 10.796218 20.319388  8.159895
57   1 0.0000 14.722116  3.947079  0.783819
58   1 0.0000 14.722116  3.947079  8.159895
59   1 0.0000 14.722116  9.404515  0.783819
60   1 0.0000 14.722116  9.404515  8.159895
61   1 0.0000 14.722116 14.861951  0.783819
62   1 0.0000 14.722116 14.861951  8.159895
63   1 0.0000 14.722116 20.319388  0.783819
64   1 0.0000 14.722116 20.319388  8.159895
65   1 0.0000  0.981474  4.239075  4.471857
66   1 0.0000  0.981474  4.239075 11.847934
67   1 0.0000  0.981474  9.696512  4.471857
68   1 0.0000  0.981474  9.696512 11.847934
69   1 0.0000  0.981474 15.153948  4.471857
70   1 0.0000  0.981474 15.153948 11.847934
71   1 0.0000  0.981474 20.611384  4.471857
72   1 0.0000  0.981474 20.611384 11.847934
73   1 0.0000  4.907372  4.239075  4.471857
74   1 0.0000  4.907372  4.239075 11.847934
75   1 0.0000  4.907372  9.696512  4.471857
76   1 0.0000  4.907372  9.696512 11.847934
77   1 0.0000  4.907372 15.153948  4.471857
78   1 0.0000  4.907372 15.153948 11.847934
79   1 0.0000  4.907372 20.611384  4.471857
80   1 0.0000  4.907372 20.611384 11.847934
81   1 0.0000  8.833270  4.239075  4.471857
82   1 0.0000  8.833270  4.239075 11.847934
83   1 0.0000  8.833270  9.696512  4.471857
84   1 0.0000  8.833270  9.696512 11.847934
85   1 0.0000  8.833270 15.153948  4.471857
86   1 0.0000  8.833270 15.153948 11.847934
87   1 0.0000  8.833270 20.611384  4.471857
88   1 0.0000  8.833270 20.611384 11.847934
89   1 0.0000 12.759167  4.239075  4.471857
90   1 0.0000 12.759167  4.239075 11.847934
91   1 0.0000 12.759167  9.696512  4.471857
92   1 0.0000 12.759167  9.696512 11.847934
93   1 0.0000 12.759167 15.153948  4.471857
94   1 0.0000 12.759167 15.153948 11.847934
95   1 0.0000 12.759167 20.611384  4.471857
96   1 0.0000 12.759167 20.611384 11.847934
97   1 0.0000  2.944423  1.218361  2.904220
98   1 0.0000  2.944423  1.218361 10.280297
99   1 0.0000  2.944423  6.675797  2.904220
100  1 0.0000  2.944423  6.675797 10.280297
101  1 0.0000  2.944423 12.133233  2.904220
102  1 0.0000  2.944423 12.133233 10.280297
103  1 0.0000  2.944423 17.590669  2.904220
104  1 0.0000  2.944423 17.590669 10.280297
105  1 0.0000  6.870321  1.218361  2.904220
106  1 0.0000  6.870321  1.218361 10.280297
107  1 0.0000  6.870321  6.675797  2.904220
108  1 0.0000  6.870321  6.675797 10.280297
109  1 0.0000  6.870321 12.133233  2.904220
110  1 0.0000  6.870321 12.133233 10.280297
111  1 0.0000  6.870321 17.590669  2.904220
112  1 0.0000  6.870321 17.590669 10.280297
113  1 0.0000 10.796218  1.218361  2.904220
114  1 0.0000 10.796218  1.218361 10.280297
115  1 0.0000 10.796218  6.675797  2.904220
116  1 0.0000 10.796218  6.675797 10.280297
117  1 0.0000 10.796218 12.133233  2.904220
118  1 0.0000 10.796218 12.133233 10.280297
119  1 0.0000 10.796218 17.590669  2.904220
120  1 0.0000 10.796218 17.590669 10.280297
121  1 0.0000 14.722116  1.218361  2.904220
122  1 0.0000 14.722116  1.218361 10.280297
123  1 0.0000 14.722116  6.675797  2.904220
124  1 0.0000 14.722116  6.675797 10.280297
125  1 0.0000 14.722116 12.133233  2.904220
126  1 0.0000 14.722116 12.133233 10.280297
127  1 0.0000 14.722116 17.590669  2.904220
128  1 0.0000 14.722116 17.590669 10.280297
129  2 0.0000  2.944423  2.875878  5.927568
130  2 0.0000  2.944423  2.875878 13.303645
131  2 0.0000  2.944423  8.333314  5.927568
132  2 0.0000  2.944423  8.333314 13.303645
133  2 0.0000  2.944423 13.790750  5.927568
134  2 0.0000  2.944423 13.790750 13.303645
135  2 0.0000  2.944423 19.248186  5.927568
136  2 0.0000  2.944423 19.248186 13.303645
137  2 0.0000  6.870321  2.875878  5.927568
138  2 0.0000  6.870321  2.875878 13.303645
139  2 0.0000  6.870321  8.333314  5.927568
140  2 0.0000  6.870321  8.333314 13.303645
141  2 0.0000  6.870321 13.790750  5.927568
142  2 0.0000  6.870321 13.790750 13.303645
143  2 0.0000  6.870321 19.248186  5.927568
144  2 0.0000  6.870321 19.248186 13.303645
145  2 0.0000 10.796218  2.875878  5.927568
146  2 0.0000 10.796218  2.875878 13.303645
147  2 0.0000 10.796218  8.333314  5.927568
148  2 0.0000 10.796218  8.333314 13.303645
149  2 0.0000 10.796218 13.790750  5.927568
150  2 0.0000 10.796218 13.790750 13.303645
151  2 0.0000 10.796218 19.248186  5.927568
152  2 0.0000 10.796218 19.248186 13.303645
153  2 0.0000 14.722116  2.875878  5.927568
154  2 0.0000 14.722116  2.875878 13.303645
155  2 0.0000 14.722116  8.333314  5.927568
156  2 0.0000 14.722116  8.333314 13.303645
157  2 0.0000 14.722116 13.790750  5.927568
158  2 0.0000 14.722116 13.790750 13.303645
159  2 0.0000 14.722116 19.248186  5.927568
160  2 0.0000 14.722116 19.248186 13.303645
161  2 0.0000  0.981474  2.581559  1.448509
162  2 0.0000  0.981474  2.581559  8.824586
163  2 0.0000  0.981474  8.038995  1.448509
164  2 0.0000  0.981474  8.038995  8.824586
165  2 0.0000  0.981474 13.496431  1.448509
166  2 0.0000  0.981474 13.496431  8.824586
167  2 0.0000  0.981474 18.953867  1.448509
168  2 0.0000  0.981474 18.953867  8.824586
169  2 0.0000  4.907372  2.581559  1.448509
170  2 0.0000  4.907372  2.581559  8.824586
171  2 0.0000  4.907372  8.038995  1.448509
172  2 0.0000  4.907372  8.038995  8.824586
173  2 0.0000  4.907372 13.496431  1.448509
174  2 0.0000  4.907372 13.496431  8.824586
175  2 0.0000  4.907372 18.953867  1.448509
176  2 0.0000  4.907372 18.953867  8.824586
177  2 0.0000  8.833270  2.581559  1.448509
178  2 0.0000  8.833270  2.581559  8.824586
179  2 0.0000  8.833270  8.038995  1.448509
180  2 0.0000  8.833270  8.038995  8.824586
181  2 0.0000  8.833270 13.496431  1.448509
182  2 0.0000  8.833270 13.496431  8.824586
183  2 0.0000  8.833270 18.953867  1.448509
184  2 0.0000  8.833270 18.953867  8.824586
185  2 0.0000 12.759167  2.581559  1.448509
186  2 0.0000 12.759167  2.581559  8.824586
187  2 0.0000 12.759167  8.038995  1.448509
188  2 0.0000 12.759167  8.038995  8.824586
189  2 0.0000 12.759167 13.496431  1.448509
190  2 0.0000 12.759167 13.496431  8.824586
191  2 0.0000 12.759167 18.953867  1.448509
192  2 0.0000 12.759167 18.953867  8.824586
193  2 0.0000  2.944423  0.147159  5.136547
194  2 0.0000  2.944423  0.147159 12.512624
195  2 0.0000  2.944423  5.604596  5.136547
196  2 0.0000  2.944423  5.604596 12.512624
197  2 0.0000  2.944423 11.062032  5.136547
198  2 0.0000  2.944423 11.062032 12.512624
199  2 0.0000  2.944423 16.519468  5.136547
200  2 0.0000  2.944423 16.519468 12.512624
201  2 0.0000  6.870321  0.147159  5.136547
202  2 0.0000  6.870321  0.147159 12.512624
203  2 0.0000  6.870321  5.604596  5.136547
204  2 0.0000  6.870321  5.604596 12.512624
205  2 0.0000  6.870321 11.062032  5.136547
206  2 0.0000  6.870321 11.062032 12.512624
207  2 0.0000  6.870321 16.519468  5.136547
208  2 0.0000  6.870321 16.519468 12.512624
209  2 0.0000 10.796218  0.147159  5.136547
210  2 0.0000 10.796218  0.147159 12.512624
211  2 0.0000 10.796218  5.604596  5.136547
212  2 0.0000 10.796218  5.604596 12.512624
213  2 0.0000 10.796218 11.062032  5.136547
214  2 0.0000 10.796218 11.062032 12.512624
215  2 0.0000 10.796218 16.519468  5.136547
216  2 0.0000 10.796218 16.519468 12.512624
217  2 0.0000 14.722116  0.147159  5.136547
218  2 0.0000 14.722116  0.147159 12.512624
219  2 0.0000 14.722116  5.604596  5.136547
220  2 0.0000 14.722116  5.604596 12.512624
221  2 0.0000 14.722116 11.062032  5.136547
222  2 0.0000 14.722116 11.062032 12.512624
223  2 0.0000 14.722116 16.519468  5.136547
224  2 0.0000 14.722116 16.519468 12.512624
225  2 0.0000  0.981474  5.310277  2.239529
226  2 0.0000  0.981474  5.310277  9.615606
227  2 0.0000  0.981474 10.767713  2.239529
228  2 0.0000  0.981474 10.767713  9.615606
229  2 0.0000  0.981474 16.225149  2.239529
230  2 0.0000  0.981474 16.225149  9.615606
231  2 0.0000  0.981474 21.682585  2.239529
232  2 0.0000  0.981474 21.682585  9.615606
233  2 0.0000  4.907372  5.310277  2.239529
234  2 0.0000  4.907372  5.310277  9.615606
235  2 0.0000  4.907372 10.767713  2.239529
236  2 0.0000  4.907372 10.767713  9.615606
237  2 0.0000  4.907372 16.225149  2.239529
238  2 0.0000  4.907372 16.225149  9.615606
239  2 0.0000  4.907372 21.682585  2.239529
240  2 0.0000  4.907372 21.682585  9.615606
241  2 0.0000  8.833270  5.310277  2.239529
242  2 0.0000  8.833270  5.310277  9.615606
243  2 0.0000  8.833270 10.767713  2.239529
244  2 0.0000  8.833270 10.767713  9.615606
245  2 0.0000  8.833270 16.225149  2.239529
246  2 0.0000  8.833270 16.225149  9.615606
247  2 0.0000  8.833270 21.682585  2.239529
248  2 0.0000  8.833270 21.682585  9.615606
249  2 0.0000 12.759167  5.310277  2.239529
250  2 0.0000 12.759167  5.310277  9.615606
251  2 0.0000 12.759167 10.767713  2.239529
252  2 0.0000 12.759167 10.767713  9.615606
253  2 0.0000 12.759167 16.225149  2.239529
254  2 0.0000 12.759167 16.225149  9.615606
255  2 0.0000 12.759167 21.682585  2.239529
256  2 0.0000 12.759167 21.682585  9.615606
257  2 0.0000  0.981474  4.589447  6.860327
258  2 0.0000  0.981474  4.589447 14.236403
259  2 0.0000  0.981474 10.046883  6.860327
260  2 0.0000  0.981474 10.046883 14.236403
261  2 0.0000  0.981474 15.504320  6.860327
262  2 0.0000  0.981474 15.504320 14.236403
263  2 0.0000  0.981474 20.961756  6.860327
264  2 0.0000  0.981474 20.961756 14.236403
265  2 0.0000  4.907372  4.589447  6.860327
266  2 0.0000  4.907372  4.589447 14.236403
267  2 0.0000  4.907372 10.046883  6.860327
268  2 0.0000  4.907372 10.046883 14.236403
269  2 0.0000  4.907372 15.504320  6.860327
270  2 0.0000  4.907372 15.504320 14.236403
271  2 0.0000  4.907372 20.961756  6.860327
272  2 0.0000  4.907372 20.961756 14.236403
273  2 0.0000  8.833270  4.589447  6.860327
274  2 0.0000  8.833270  4.589447 14.236403
275  2 0.0000  8.833270 10.046883  6.860327
276  2 0.0000  8.833270 10.046883 14.236403
277  2 0.0000  8.833270 15.504320  6.860327
278  2 0.0000  8.833270 15.504320 14.236403
279  2 0.0000  8.833270 20.961756  6.860327
280  2 0.0000  8.833270 20.961756 14.236403
281  2 0.0000 12.759167  4.589447  6.860327
282  2 0.0000 12.759167  4.589447 14.236403
283  2 0.0000 12.759167 10.046883  6.860327
284  2 0.0000 12.759167 10.046883 14.236403
285  2 0.0000 12.759167 15.504320  6.860327
286  2 0.0000 12.759167 15.504320 14.236403
287  2 0.0000 12.759167 20.961756  6.860327
288  2 0.0000 12.759167 20.961756 14.236403
289  2 0.0000  2.944423  0.867989  0.515750
290  2 0.0000  2.944423  0.867989  7.891827
291  2 0.0000  2.944423  6.325425  0.515750
292  2 0.0000  2.944423  6.325425  7.891827
293  2 0.0000  2.944423 11.782861  0.515750
294  2 0.0000  2.944423 11.782861  7.891827
295  2 0.0000  2.944423 17.240298  0.515750
296  2 0.0000  2.944423 17.240298  7.891827
297  2 0.0000  6.870321  0.867989  0.515750
298  2 0.0000  6.870321  0.867989  7.891827
299  2 0.0000  6.870321  6.325425  0.515750
300  2 0.0000  6.870321  6.325425  7.891827
301  2 0.0000  6.870321 11.782861  0.515750
302  2 0.0000  6.870321 11.782861  7.891827
303  2 0.0000  6.870321 17.240298  0.515750
304  2 0.0000  6.870321 17.240298  7.891827
305  2 0.0000 10.796218  0.867989  0.515750
306  2 0.0000 10.796218  0.867989  7.891827
307  2 0.0000 10.796218  6.325425  0.515750
308  2 0.0000 10.796218  6.325425  7.891827
309  2 0.0000 10.796218 11.782861  0.515750
310  2 0.0000 10.796218 11.782861  7.891827
311  2 0.0000 10.796218 17.240298  0.515750
312  2 0.0000 10.796218 17.240298  7.891827
313  2 0.0000 14.722116  0.867989  0.515750
314  2 0.0000 14.722116  0.867989  7.891827
315  2 0.0000 14.722116  6.325425  0.515750
316  2 0.0000 14.722116  6.325425  7.891827
317  2 0.0000 14.722116 11.782861  0.515750
318  2 0.0000 14.722116 11.782861  7.891827
319  2 0.0000 14.722116 17.240298  0.515750
320  2 0.0000 14.722116 17.240298  7.891827
321  2 0.0000  0.981474  1.860729  4.203789
322  2 0.0000  0.981474  1.860729 11.579866
323  2 0.0000  0.981474  7.318165  4.203789
324  2 0.0000  0.981474  7.318165 11.579866
325  2 0.0000  0.981474 12.775602  4.203789
326  2 0.0000  0.981474 12.775602 11.579866
327  2 0.0000  0.981474 18.233038  4.203789
328  2 0.0000  0.981474 18.233038 11.579866
329  2 0.0000  4.907372  1.860729  4.203789
330  2 0.0000  4.907372  1.860729 11.579866
331  2 0.0000  4.907372  7.318165  4.203789
332  2 0.0000  4.907372  7.318165 11.579866
333  2 0.0000  4.907372 12.775602  4.203789
334  2 0.0000  4.907372 12.775602 11.579866
335  2 0.0000  4.907372 18.233038  4.203789
336  2 0.0000  4.907372 18.233038 11.579866
337  2 0.0000  8.833270  1.860729  4.203789
338  2 0.0000  8.833270  1.860729 11.579866
339  2 0.0000  8.833270  7.318165  4.203789
340  2 0.0000  8.833270  7.318165 11.579866
341  2 0.0000  8.833270 12.775602  4.203789
342  2 0.0000  8.833270 12.775602 11.579866
343  2 0.0000  8.833270 18.233038  4.203789
344  2 0.0000  8.833270 18.233038 11.579866
345  2 0.0000 12.759167  1.860729  4.203789
346  2 0.0000 12.759167  1.860729 11.579866
347  2 0.0000 12.759167  7.318165  4.203789
348  2 0.0000 12.759167  7.318165 11.579866
349  2 0.0000 12.759167 12.775602  4.203789
350  2 0.0000 12.759167 12.775602 11.579866
351  2 0.0000 12.759167 18.233038  4.203789
352  2 0.0000 12.759167 18.233038 11.579866
353  2 0.0000  2.944423  3.596707  3.172288
354  2 0.0000  2.944423  3.596707 10.548365
355  2 0.0000  2.944423  9.054143  3.172288
356  2 0.0000  2.944423  9.054143 10.548365
357  2 0.0000  2.944423 14.511579  3.172288
358  2 0.0000  2.944423 14.511579 10.548365
359  2 0.0000  2.944423 19.969016  3.172288
360  2 0.0000  2.944423 19.969016 10.548365
361  2 0.0000  6.870321  3.596707  3.172288
362  2 0.0000  6.870321  3.596707 10.548365
363  2 0.0000  6.870321  9.054143  3.172288
364  2 0.0000  6.870321  9.054143 10.548365
365  2 0.0000  6.870321 14.511579  3.172288
366  2 0.0000  6.870321 14.511579 10.548365
367  2 0.0000  6.870321 19.969016  3.172288
368  2 0.0000  6.870321 19.969016 10.548365
369  2 0.0000 10.796218  3.596707  3.172288
370  2 0.0000 10.796218  3.596707 10.548365
371  2 0.0000 10.796218  9.054143  3.172288
372  2 0.0000 10.796218  9.054143 10.548365
373  2 0.0000 10.796218 14.511579  3.172288
374  2 0.0000 10.796218 14.511579 10.548365
375  2 0.0000 10.796218 19.969016  3.172288
376  2 0.0000 10.796218 19.969016 10.548365
377  2 0.0000 14.722116  3.596707  3.172288
378  2 0.0000 14.722116  3.596707 10.548365
379  2 0.0000 14.722116  9.054143  3.172288
380  2 0.0000 14.722116  9.054143 10.548365
381  2 0.0000 14.722116 14.511579  3.172288
382  2 0.0000 14.722116 14.511579 10.548365
383  2 0.0000 14.722116 19.969016  3.172288
384  2 0.0000 14.722116 19.969016 10.548365

