Generated by pymatgen.io.lammps.data.LammpsData

900  atoms

  3  atom types

0.000000 23.277311  xlo xhi
0.000000 23.277311  ylo yhi
0.000000 21.429438  zlo zhi

Masses

1   47.8670
2  207.2000
3   15.9994

Atoms

1    1 0.0000  1.939776  1.939776  2.496591
2    1 0.0000  1.939776  1.939776  6.782479
3    1 0.0000  1.939776  1.939776 11.068367
4    1 0.0000  1.939776  1.939776 15.354254
5    1 0.0000  1.939776  1.939776 19.640142
6    1 0.0000  1.939776  5.819328  2.496591
7    1 0.0000  1.939776  5.819328  6.782479
8    1 0.0000  1.939776  5.819328 11.068367
9    1 0.0000  1.939776  5.819328 15.354254
10   1 0.0000  1.939776  5.819328 19.640142
11   1 0.0000  1.939776  9.698880  2.496591
12   1 0.0000  1.939776  9.698880  6.782479
13   1 0.0000  1.939776  9.698880 11.068367
14   1 0.0000  1.939776  9.698880 15.354254
15   1 0.0000  1.939776  9.698880 19.640142
16   1 0.0000  1.939776 13.578432  2.496591
17   1 0.0000  1.939776 13.578432  6.782479
18   1 0.0000  1.939776 13.578432 11.068367
19   1 0.0000  1.939776 13.578432 15.354254
20   1 0.0000  1.939776 13.578432 19.640142
21   1 0.0000  1.939776 17.457984  2.496591
22   1 0.0000  1.939776 17.457984  6.782479
23   1 0.0000  1.939776 17.457984 11.068367
24   1 0.0000  1.939776 17.457984 15.354254
25   1 0.0000  1.939776 17.457984 19.640142
26   1 0.0000  1.939776 21.337535  2.496591
27   1 0.0000  1.939776 21.337535  6.782479
28   1 0.0000  1.939776 21.337535 11.068367
29   1 0.0000  1.939776 21.337535 15.354254
30   1 0.0000  1.939776 21.337535 19.640142
31   1 0.0000  5.819328  1.939776  2.496591
32   1 0.0000  5.819328  1.939776  6.782479
33   1 0.0000  5.819328  1.939776 11.068367
34   1 0.0000  5.819328  1.939776 15.354254
35   1 0.0000  5.819328  1.939776 19.640142
36   1 0.0000  5.819328  5.819328  2.496591
37   1 0.0000  5.819328  5.819328  6.782479
38   1 0.0000  5.819328  5.819328 11.068367
39   1 0.0000  5.819328  5.819328 15.354254
40   1 0.0000  5.819328  5.819328 19.640142
41   1 0.0000  5.819328  9.698880  2.496591
42   1 0.0000  5.819328  9.698880  6.782479
43   1 0.0000  5.819328  9.698880 11.068367
44   1 0.0000  5.819328  9.698880 15.354254
45   1 0.0000  5.819328  9.698880 19.640142
46   1 0.0000  5.819328 13.578432  2.496591
47   1 0.0000  5.819328 13.578432  6.782479
48   1 0.0000  5.819328 13.578432 11.068367
49   1 0.0000  5.819328 13.578432 15.354254
50   1 0.0000  5.819328 13.578432 19.640142
51   1 0.0000  5.819328 17.457984  2.496591
52   1 0.0000  5.819328 17.457984  6.782479
53   1 0.0000  5.819328 17.457984 11.068367
54   1 0.0000  5.819328 17.457984 15.354254
55   1 0.0000  5.819328 17.457984 19.640142
56   1 0.0000  5.819328 21.337535  2.496591
57   1 0.0000  5.819328 21.337535  6.782479
58   1 0.0000  5.819328 21.337535 11.068367
59   1 0.0000  5.819328 21.337535 15.354254
60   1 0.0000  5.819328 21.337535 19.640142
61   1 0.0000  9.698880  1.939776  2.496591
62   1 0.0000  9.698880  1.939776  6.782479
63   1 0.0000  9.698880  1.939776 11.068367
64   1 0.0000  9.698880  1.939776 15.354254
65   1 0.0000  9.698880  1.939776 19.640142
66   1 0.0000  9.698880  5.819328  2.496591
67   1 0.0000  9.698880  5.819328  6.782479
68   1 0.0000  9.698880  5.819328 11.068367
69   1 0.0000  9.698880  5.819328 15.354254
70   1 0.0000  9.698880  5.819328 19.640142
71   1 0.0000  9.698880  9.698880  2.496591
72   1 0.0000  9.698880  9.698880  6.782479
73   1 0.0000  9.698880  9.698880 11.068367
74   1 0.0000  9.698880  9.698880 15.354254
75   1 0.0000  9.698880  9.698880 19.640142
76   1 0.0000  9.698880 13.578432  2.496591
77   1 0.0000  9.698880 13.578432  6.782479
78   1 0.0000  9.698880 13.578432 11.068367
79   1 0.0000  9.698880 13.578432 15.354254
80   1 0.0000  9.698880 13.578432 19.640142
81   1 0.0000  9.698880 17.457984  2.496591
82   1 0.0000  9.698880 17.457984  6.782479
83   1 0.0000  9.698880 17.457984 11.068367
84   1 0.0000  9.698880 17.457984 15.354254
85   1 0.0000  9.698880 17.457984 19.640142
86   1 0.0000  9.698880 21.337535  2.496591
87   1 0.0000  9.698880 21.337535  6.782479
88   1 0.0000  9.698880 21.337535 11.068367
89   1 0.0000  9.698880 21.337535 15.354254
90   1 0.0000  9.698880 21.337535 19.640142
91   1 0.0000 13.578432  1.939776  2.496591
92   1 0.0000 13.578432  1.939776  6.782479
93   1 0.0000 13.578432  1.939776 11.068367
94   1 0.0000 13.578432  1.939776 15.354254
95   1 0.0000 13.578432  1.939776 19.640142
96   1 0.0000 13.578432  5.819328  2.496591
97   1 0.0000 13.578432  5.819328  6.782479
98   1 0.0000 13.578432  5.819328 11.068367
99   1 0.0000 13.578432  5.819328 15.354254
100  1 0.0000 13.578432  5.819328 19.640142
101  1 0.0000 13.578432  9.698880  2.496591
102  1 0.0000 13.578432  9.698880  6.782479
103  1 0.0000 13.578432  9.698880 11.068367
104  1 0.0000 13.578432  9.698880 15.354254
105  1 0.0000 13.578432  9.698880 19.640142
106  1 0.0000 13.578432 13.578432  2.496591
107  1 0.0000 13.578432 13.578432  6.782479
108  1 0.0000 13.578432 13.578432 11.068367
109  1 0.0000 13.578432 13.578432 15.354254
110  1 0.0000 13.578432 13.578432 19.640142
111  1 0.0000 13.578432 17.457984  2.496591
112  1 0.0000 13.578432 17.457984  6.782479
113  1 0.0000 13.578432 17.457984 11.068367
114  1 0.0000 13.578432 17.457984 15.354254
115  1 0.0000 13.578432 17.457984 19.640142
116  1 0.0000 13.578432 21.337535  2.496591
117  1 0.0000 13.578432 21.337535  6.782479
118  1 0.0000 13.578432 21.337535 11.068367
119  1 0.0000 13.578432 21.337535 15.354254
120  1 0.0000 13.578432 21.337535 19.640142
121  1 0.0000 17.457984  1.939776  2.496591
122  1 0.0000 17.457984  1.939776  6.782479
123  1 0.0000 17.457984  1.939776 11.068367
124  1 0.0000 17.457984  1.939776 15.354254
125  1 0.0000 17.457984  1.939776 19.640142
126  1 0.0000 17.457984  5.819328  2.496591
127  1 0.0000 17.457984  5.819328  6.782479
128  1 0.0000 17.457984  5.819328 11.068367
129  1 0.0000 17.457984  5.819328 15.354254
130  1 0.0000 17.457984  5.819328 19.640142
131  1 0.0000 17.457984  9.698880  2.496591
132  1 0.0000 17.457984  9.698880  6.782479
133  1 0.0000 17.457984  9.698880 11.068367
134  1 0.0000 17.457984  9.698880 15.354254
135  1 0.0000 17.457984  9.698880 19.640142
136  1 0.0000 17.457984 13.578432  2.496591
137  1 0.0000 17.457984 13.578432  6.782479
138  1 0.0000 17.457984 13.578432 11.068367
139  1 0.0000 17.457984 13.578432 15.354254
140  1 0.0000 17.457984 13.578432 19.640142
141  1 0.0000 17.457984 17.457984  2.496591
142  1 0.0000 17.457984 17.457984  6.782479
143  1 0.0000 17.457984 17.457984 11.068367
144  1 0.0000 17.457984 17.457984 15.354254
145  1 0.0000 17.457984 17.457984 19.640142
146  1 0.0000 17.457984 21.337535  2.496591
147  1 0.0000 17.457984 21.337535  6.782479
148  1 0.0000 17.457984 21.337535 11.068367
149  1 0.0000 17.457984 21.337535 15.354254
150  1 0.0000 17.457984 21.337535 19.640142
151  1 0.0000 21.337535  1.939776  2.496591
152  1 0.0000 21.337535  1.939776  6.782479
153  1 0.0000 21.337535  1.939776 11.068367
154  1 0.0000 21.337535  1.939776 15.354254
155  1 0.0000 21.337535  1.939776 19.640142
156  1 0.0000 21.337535  5.819328  2.496591
157  1 0.0000 21.337535  5.819328  6.782479
158  1 0.0000 21.337535  5.819328 11.068367
159  1 0.0000 21.337535  5.819328 15.354254
160  1 0.0000 21.337535  5.819328 19.640142
161  1 0.0000 21.337535  9.698880  2.496591
162  1 0.0000 21.337535  9.698880  6.782479
163  1 0.0000 21.337535  9.698880 11.068367
164  1 0.0000 21.337535  9.698880 15.354254
165  1 0.0000 21.337535  9.698880 19.640142
166  1 0.0000 21.337535 13.578432  2.496591
167  1 0.0000 21.337535 13.578432  6.782479
168  1 0.0000 21.337535 13.578432 11.068367
169  1 0.0000 21.337535 13.578432 15.354254
170  1 0.0000 21.337535 13.578432 19.640142
171  1 0.0000 21.337535 17.457984  2.496591
172  1 0.0000 21.337535 17.457984  6.782479
173  1 0.0000 21.337535 17.457984 11.068367
174  1 0.0000 21.337535 17.457984 15.354254
175  1 0.0000 21.337535 17.457984 19.640142
176  1 0.0000 21.337535 21.337535  2.496591
177  1 0.0000 21.337535 21.337535  6.782479
178  1 0.0000 21.337535 21.337535 11.068367
179  1 0.0000 21.337535 21.337535 15.354254
180  1 0.0000 21.337535 21.337535 19.640142
181  2 0.0000  0.000000  0.000000  0.529684
182  2 0.0000  0.000000  0.000000  4.815572
183  2 0.0000  0.000000  0.000000  9.101459
184  2 0.0000  0.000000  0.000000 13.387347
185  2 0.0000  0.000000  0.000000 17.673235
186  2 0.0000  0.000000  3.879552  0.529684
187  2 0.0000  0.000000  3.879552  4.815572
188  2 0.0000  0.000000  3.879552  9.101459
189  2 0.0000  0.000000  3.879552 13.387347
190  2 0.0000  0.000000  3.879552 17.673235
191  2 0.0000  0.000000  7.759104  0.529684
192  2 0.0000  0.000000  7.759104  4.815572
193  2 0.0000  0.000000  7.759104  9.101459
194  2 0.0000  0.000000  7.759104 13.387347
195  2 0.0000  0.000000  7.759104 17.673235
196  2 0.0000  0.000000 11.638656  0.529684
197  2 0.0000  0.000000 11.638656  4.815572
198  2 0.0000  0.000000 11.638656  9.101459
199  2 0.0000  0.000000 11.638656 13.387347
200  2 0.0000  0.000000 11.638656 17.673235
201  2 0.0000  0.000000 15.518208  0.529684
202  2 0.0000  0.000000 15.518208  4.815572
203  2 0.0000  0.000000 15.518208  9.101459
204  2 0.0000  0.000000 15.518208 13.387347
205  2 0.0000  0.000000 15.518208 17.673235
206  2 0.0000  0.000000 19.397759  0.529684
207  2 0.0000  0.000000 19.397759  4.815572
208  2 0.0000  0.000000 19.397759  9.101459
209  2 0.0000  0.000000 19.397759 13.387347
210  2 0.0000  0.000000 19.397759 17.673235
211  2 0.0000  3.879552  0.000000  0.529684
212  2 0.0000  3.879552  0.000000  4.815572
213  2 0.0000  3.879552  0.000000  9.101459
214  2 0.0000  3.879552  0.000000 13.387347
215  2 0.0000  3.879552  0.000000 17.673235
216  2 0.0000  3.879552  3.879552  0.529684
217  2 0.0000  3.879552  3.879552  4.815572
218  2 0.0000  3.879552  3.879552  9.101459
219  2 0.0000  3.879552  3.879552 13.387347
220  2 0.0000  3.879552  3.879552 17.673235
221  2 0.0000  3.879552  7.759104  0.529684
222  2 0.0000  3.879552  7.759104  4.815572
223  2 0.0000  3.879552  7.759104  9.101459
224  2 0.0000  3.879552  7.759104 13.387347
225  2 0.0000  3.879552  7.759104 17.673235
226  2 0.0000  3.879552 11.638656  0.529684
227  2 0.0000  3.879552 11.638656  4.815572
228  2 0.0000  3.879552 11.638656  9.101459
229  2 0.0000  3.879552 11.638656 13.387347
230  2 0.0000  3.879552 11.638656 17.673235
231  2 0.0000  3.879552 15.518208  0.529684
232  2 0.0000  3.879552 15.518208  4.815572
233  2 0.0000  3.879552 15.518208  9.101459
234  2 0.0000  3.879552 15.518208 13.387347
235  2 0.0000  3.879552 15.518208 17.673235
236  2 0.0000  3.879552 19.397759  0.529684
237  2 0.0000  3.879552 19.397759  4.815572
238  2 0.0000  3.879552 19.397759  9.101459
239  2 0.0000  3.879552 19.397759 13.387347
240  2 0.0000  3.879552 19.397759 17.673235
241  2 0.0000  7.759104  0.000000  0.529684
242  2 0.0000  7.759104  0.000000  4.815572
243  2 0.0000  7.759104  0.000000  9.101459
244  2 0.0000  7.759104  0.000000 13.387347
245  2 0.0000  7.759104  0.000000 17.673235
246  2 0.0000  7.759104  3.879552  0.529684
247  2 0.0000  7.759104  3.879552  4.815572
248  2 0.0000  7.759104  3.879552  9.101459
249  2 0.0000  7.759104  3.879552 13.387347
250  2 0.0000  7.759104  3.879552 17.673235
251  2 0.0000  7.759104  7.759104  0.529684
252  2 0.0000  7.759104  7.759104  4.815572
253  2 0.0000  7.759104  7.759104  9.101459
254  2 0.0000  7.759104  7.759104 13.387347
255  2 0.0000  7.759104  7.759104 17.673235
256  2 0.0000  7.759104 11.638656  0.529684
257  2 0.0000  7.759104 11.638656  4.815572
258  2 0.0000  7.759104 11.638656  9.101459
259  2 0.0000  7.759104 11.638656 13.387347
260  2 0.0000  7.759104 11.638656 17.673235
261  2 0.0000  7.759104 15.518208  0.529684
262  2 0.0000  7.759104 15.518208  4.815572
263  2 0.0000  7.759104 15.518208  9.101459
264  2 0.0000  7.759104 15.518208 13.387347
265  2 0.0000  7.759104 15.518208 17.673235
266  2 0.0000  7.759104 19.397759  0.529684
267  2 0.0000  7.759104 19.397759  4.815572
268  2 0.0000  7.759104 19.397759  9.101459
269  2 0.0000  7.759104 19.397759 13.387347
270  2 0.0000  7.759104 19.397759 17.673235
271  2 0.0000 11.638656  0.000000  0.529684
272  2 0.0000 11.638656  0.000000  4.815572
273  2 0.0000 11.638656  0.000000  9.101459
274  2 0.0000 11.638656  0.000000 13.387347
275  2 0.0000 11.638656  0.000000 17.673235
276  2 0.0000 11.638656  3.879552  0.529684
277  2 0.0000 11.638656  3.879552  4.815572
278  2 0.0000 11.638656  3.879552  9.101459
279  2 0.0000 11.638656  3.879552 13.387347
280  2 0.0000 11.638656  3.879552 17.673235
281  2 0.0000 11.638656  7.759104  0.529684
282  2 0.0000 11.638656  7.759104  4.815572
283  2 0.0000 11.638656  7.759104  9.101459
284  2 0.0000 11.638656  7.759104 13.387347
285  2 0.0000 11.638656  7.759104 17.673235
286  2 0.0000 11.638656 11.638656  0.529684
287  2 0.0000 11.638656 11.638656  4.815572
288  2 0.0000 11.638656 11.638656  9.101459
289  2 0.0000 11.638656 11.638656 13.387347
290  2 0.0000 11.638656 11.638656 17.673235
291  2 0.0000 11.638656 15.518208  0.529684
292  2 0.0000 11.638656 15.518208  4.815572
293  2 0.0000 11.638656 15.518208  9.101459
294  2 0.0000 11.638656 15.518208 13.387347
295  2 0.0000 11.638656 15.518208 17.673235
296  2 0.0000 11.638656 19.397759  0.529684
297  2 0.0000 11.638656 19.397759  4.815572
298  2 0.0000 11.638656 19.397759  9.101459
299  2 0.0000 11.638656 19.397759 13.387347
300  2 0.0000 11.638656 19.397759 17.673235
301  2 0.0000 15.518208  0.000000  0.529684
302  2 0.0000 15.518208  0.000000  4.815572
303  2 0.0000 15.518208  0.000000  9.101459
304  2 0.0000 15.518208  0.000000 13.387347
305  2 0.0000 15.518208  0.000000 17.673235
306  2 0.0000 15.518208  3.879552  0.529684
307  2 0.0000 15.518208  3.879552  4.815572
308  2 0.0000 15.518208  3.879552  9.101459
309  2 0.0000 15.518208  3.879552 13.387347
310  2 0.0000 15.518208  3.879552 17.673235
311  2 0.0000 15.518208  7.759104  0.529684
312  2 0.0000 15.518208  7.759104  4.815572
313  2 0.0000 15.518208  7.759104  9.101459
314  2 0.0000 15.518208  7.759104 13.387347
315  2 0.0000 15.518208  7.759104 17.673235
316  2 0.0000 15.518208 11.638656  0.529684
317  2 0.0000 15.518208 11.638656  4.815572
318  2 0.0000 15.518208 11.638656  9.101459
319  2 0.0000 15.518208 11.638656 13.387347
320  2 0.0000 15.518208 11.638656 17.673235
321  2 0.0000 15.518208 15.518208  0.529684
322  2 0.0000 15.518208 15.518208  4.815572
323  2 0.0000 15.518208 15.518208  9.101459
324  2 0.0000 15.518208 15.518208 13.387347
325  2 0.0000 15.518208 15.518208 17.673235
326  2 0.0000 15.518208 19.397759  0.529684
327  2 0.0000 15.518208 19.397759  4.815572
328  2 0.0000 15.518208 19.397759  9.101459
329  2 0.0000 15.518208 19.397759 13.387347
330  2 0.0000 15.518208 19.397759 17.673235
331  2 0.0000 19.397759  0.000000  0.529684
332  2 0.0000 19.397759  0.000000  4.815572
333  2 0.0000 19.397759  0.000000  9.101459
334  2 0.0000 19.397759  0.000000 13.387347
335  2 0.0000 19.397759  0.000000 17.673235
336  2 0.0000 19.397759  3.879552  0.529684
337  2 0.0000 19.397759  3.879552  4.815572
338  2 0.0000 19.397759  3.879552  9.101459
339  2 0.0000 19.397759  3.879552 13.387347
340  2 0.0000 19.397759  3.879552 17.673235
341  2 0.0000 19.397759  7.759104  0.529684
342  2 0.0000 19.397759  7.759104  4.815572
343  2 0.0000 19.397759  7.759104  9.101459
344  2 0.0000 19.397759  7.759104 13.387347
345  2 0.0000 19.397759  7.759104 17.673235
346  2 0.0000 19.397760 11.638656  0.529684
347  2 0.0000 19.397760 11.638656  4.815572
348  2 0.0000 19.397760 11.638656  9.101459
349  2 0.0000 19.397760 11.638656 13.387347
350  2 0.0000 19.397760 11.638656 17.673235
351  2 0.0000 19.397760 15.518208  0.529684
352  2 0.0000 19.397760 15.518208  4.815572
353  2 0.0000 19.397760 15.518208  9.101459
354  2 0.0000 19.397760 15.518208 13.387347
355  2 0.0000 19.397760 15.518208 17.673235
356  2 0.0000 19.397760 19.397759  0.529684
357  2 0.0000 19.397760 19.397759  4.815572
358  2 0.0000 19.397760 19.397759  9.101459
359  2 0.0000 19.397760 19.397759 13.387347
360  2 0.0000 19.397760 19.397759 17.673235
361  3 0.0000  0.000000  1.939776  2.117904
362  3 0.0000  0.000000  1.939776  6.403792
363  3 0.0000  0.000000  1.939776 10.689679
364  3 0.0000  0.000000  1.939776 14.975567
365  3 0.0000  0.000000  1.939776 19.261455
366  3 0.0000  0.000000  5.819328  2.117904
367  3 0.0000  0.000000  5.819328  6.403792
368  3 0.0000  0.000000  5.819328 10.689679
369  3 0.0000  0.000000  5.819328 14.975567
370  3 0.0000  0.000000  5.819328 19.261455
371  3 0.0000  0.000000  9.698880  2.117904
372  3 0.0000  0.000000  9.698880  6.403792
373  3 0.0000  0.000000  9.698880 10.689679
374  3 0.0000  0.000000  9.698880 14.975567
375  3 0.0000  0.000000  9.698880 19.261455
376  3 0.0000  0.000000 13.578432  2.117904
377  3 0.0000  0.000000 13.578432  6.403792
378  3 0.0000  0.000000 13.578432 10.689679
379  3 0.0000  0.000000 13.578432 14.975567
380  3 0.0000  0.000000 13.578432 19.261455
381  3 0.0000  0.000000 17.457984  2.117904
382  3 0.0000  0.000000 17.457984  6.403792
383  3 0.0000  0.000000 17.457984 10.689679
384  3 0.0000  0.000000 17.457984 14.975567
385  3 0.0000  0.000000 17.457984 19.261455
386  3 0.0000  0.000000 21.337535  2.117904
387  3 0.0000  0.000000 21.337535  6.403792
388  3 0.0000  0.000000 21.337535 10.689679
389  3 0.0000  0.000000 21.337535 14.975567
390  3 0.0000  0.000000 21.337535 19.261455
391  3 0.0000  3.879552  1.939776  2.117904
392  3 0.0000  3.879552  1.939776  6.403792
393  3 0.0000  3.879552  1.939776 10.689679
394  3 0.0000  3.879552  1.939776 14.975567
395  3 0.0000  3.879552  1.939776 19.261455
396  3 0.0000  3.879552  5.819328  2.117904
397  3 0.0000  3.879552  5.819328  6.403792
398  3 0.0000  3.879552  5.819328 10.689679
399  3 0.0000  3.879552  5.819328 14.975567
400  3 0.0000  3.879552  5.819328 19.261455
401  3 0.0000  3.879552  9.698880  2.117904
402  3 0.0000  3.879552  9.698880  6.403792
403  3 0.0000  3.879552  9.698880 10.689679
404  3 0.0000  3.879552  9.698880 14.975567
405  3 0.0000  3.879552  9.698880 19.261455
406  3 0.0000  3.879552 13.578432  2.117904
407  3 0.0000  3.879552 13.578432  6.403792
408  3 0.0000  3.879552 13.578432 10.689679
409  3 0.0000  3.879552 13.578432 14.975567
410  3 0.0000  3.879552 13.578432 19.261455
411  3 0.0000  3.879552 17.457984  2.117904
412  3 0.0000  3.879552 17.457984  6.403792
413  3 0.0000  3.879552 17.457984 10.689679
414  3 0.0000  3.879552 17.457984 14.975567
415  3 0.0000  3.879552 17.457984 19.261455
416  3 0.0000  3.879552 21.337535  2.117904
417  3 0.0000  3.879552 21.337535  6.403792
418  3 0.0000  3.879552 21.337535 10.689679
419  3 0.0000  3.879552 21.337535 14.975567
420  3 0.0000  3.879552 21.337535 19.261455
421  3 0.0000  7.759104  1.939776  2.117904
422  3 0.0000  7.759104  1.939776  6.403792
423  3 0.0000  7.759104  1.939776 10.689679
424  3 0.0000  7.759104  1.939776 14.975567
425  3 0.0000  7.759104  1.939776 19.261455
426  3 0.0000  7.759104  5.819328  2.117904
427  3 0.0000  7.759104  5.819328  6.403792
428  3 0.0000  7.759104  5.819328 10.689679
429  3 0.0000  7.759104  5.819328 14.975567
430  3 0.0000  7.759104  5.819328 19.261455
431  3 0.0000  7.759104  9.698880  2.117904
432  3 0.0000  7.759104  9.698880  6.403792
433  3 0.0000  7.759104  9.698880 10.689679
434  3 0.0000  7.759104  9.698880 14.975567
435  3 0.0000  7.759104  9.698880 19.261455
436  3 0.0000  7.759104 13.578432  2.117904
437  3 0.0000  7.759104 13.578432  6.403792
438  3 0.0000  7.759104 13.578432 10.689679
439  3 0.0000  7.759104 13.578432 14.975567
440  3 0.0000  7.759104 13.578432 19.261455
441  3 0.0000  7.759104 17.457984  2.117904
442  3 0.0000  7.759104 17.457984  6.403792
443  3 0.0000  7.759104 17.457984 10.689679
444  3 0.0000  7.759104 17.457984 14.975567
445  3 0.0000  7.759104 17.457984 19.261455
446  3 0.0000  7.759104 21.337535  2.117904
447  3 0.0000  7.759104 21.337535  6.403792
448  3 0.0000  7.759104 21.337535 10.689679
449  3 0.0000  7.759104 21.337535 14.975567
450  3 0.0000  7.759104 21.337535 19.261455
451  3 0.0000 11.638656  1.939776  2.117904
452  3 0.0000 11.638656  1.939776  6.403792
453  3 0.0000 11.638656  1.939776 10.689679
454  3 0.0000 11.638656  1.939776 14.975567
455  3 0.0000 11.638656  1.939776 19.261455
456  3 0.0000 11.638656  5.819328  2.117904
457  3 0.0000 11.638656  5.819328  6.403792
458  3 0.0000 11.638656  5.819328 10.689679
459  3 0.0000 11.638656  5.819328 14.975567
460  3 0.0000 11.638656  5.819328 19.261455
461  3 0.0000 11.638656  9.698880  2.117904
462  3 0.0000 11.638656  9.698880  6.403792
463  3 0.0000 11.638656  9.698880 10.689679
464  3 0.0000 11.638656  9.698880 14.975567
465  3 0.0000 11.638656  9.698880 19.261455
466  3 0.0000 11.638656 13.578432  2.117904
467  3 0.0000 11.638656 13.578432  6.403792
468  3 0.0000 11.638656 13.578432 10.689679
469  3 0.0000 11.638656 13.578432 14.975567
470  3 0.0000 11.638656 13.578432 19.261455
471  3 0.0000 11.638656 17.457984  2.117904
472  3 0.0000 11.638656 17.457984  6.403792
473  3 0.0000 11.638656 17.457984 10.689679
474  3 0.0000 11.638656 17.457984 14.975567
475  3 0.0000 11.638656 17.457984 19.261455
476  3 0.0000 11.638656 21.337535  2.117904
477  3 0.0000 11.638656 21.337535  6.403792
478  3 0.0000 11.638656 21.337535 10.689679
479  3 0.0000 11.638656 21.337535 14.975567
480  3 0.0000 11.638656 21.337535 19.261455
481  3 0.0000 15.518208  1.939776  2.117904
482  3 0.0000 15.518208  1.939776  6.403792
483  3 0.0000 15.518208  1.939776 10.689679
484  3 0.0000 15.518208  1.939776 14.975567
485  3 0.0000 15.518208  1.939776 19.261455
486  3 0.0000 15.518208  5.819328  2.117904
487  3 0.0000 15.518208  5.819328  6.403792
488  3 0.0000 15.518208  5.819328 10.689679
489  3 0.0000 15.518208  5.819328 14.975567
490  3 0.0000 15.518208  5.819328 19.261455
491  3 0.0000 15.518208  9.698880  2.117904
492  3 0.0000 15.518208  9.698880  6.403792
493  3 0.0000 15.518208  9.698880 10.689679
494  3 0.0000 15.518208  9.698880 14.975567
495  3 0.0000 15.518208  9.698880 19.261455
496  3 0.0000 15.518208 13.578432  2.117904
497  3 0.0000 15.518208 13.578432  6.403792
498  3 0.0000 15.518208 13.578432 10.689679
499  3 0.0000 15.518208 13.578432 14.975567
500  3 0.0000 15.518208 13.578432 19.261455
501  3 0.0000 15.518208 17.457984  2.117904
502  3 0.0000 15.518208 17.457984  6.403792
503  3 0.0000 15.518208 17.457984 10.689679
504  3 0.0000 15.518208 17.457984 14.975567
505  3 0.0000 15.518208 17.457984 19.261455
506  3 0.0000 15.518208 21.337535  2.117904
507  3 0.0000 15.518208 21.337535  6.403792
508  3 0.0000 15.518208 21.337535 10.689679
509  3 0.0000 15.518208 21.337535 14.975567
510  3 0.0000 15.518208 21.337535 19.261455
511  3 0.0000 19.397759  1.939776  2.117904
512  3 0.0000 19.397759  1.939776  6.403792
513  3 0.0000 19.397759  1.939776 10.689679
514  3 0.0000 19.397759  1.939776 14.975567
515  3 0.0000 19.397759  1.939776 19.261455
516  3 0.0000 19.397759  5.819328  2.117904
517  3 0.0000 19.397759  5.819328  6.403792
518  3 0.0000 19.397759  5.819328 10.689679
519  3 0.0000 19.397759  5.819328 14.975567
520  3 0.0000 19.397759  5.819328 19.261455
521  3 0.0000 19.397759  9.698880  2.117904
522  3 0.0000 19.397759  9.698880  6.403792
523  3 0.0000 19.397759  9.698880 10.689679
524  3 0.0000 19.397759  9.698880 14.975567
525  3 0.0000 19.397759  9.698880 19.261455
526  3 0.0000 19.397760 13.578432  2.117904
527  3 0.0000 19.397760 13.578432  6.403792
528  3 0.0000 19.397760 13.578432 10.689679
529  3 0.0000 19.397760 13.578432 14.975567
530  3 0.0000 19.397760 13.578432 19.261455
531  3 0.0000 19.397760 17.457984  2.117904
532  3 0.0000 19.397760 17.457984  6.403792
533  3 0.0000 19.397760 17.457984 10.689679
534  3 0.0000 19.397760 17.457984 14.975567
535  3 0.0000 19.397760 17.457984 19.261455
536  3 0.0000 19.397760 21.337535  2.117904
537  3 0.0000 19.397760 21.337535  6.403792
538  3 0.0000 19.397760 21.337535 10.689679
539  3 0.0000 19.397760 21.337535 14.975567
540  3 0.0000 19.397760 21.337535 19.261455
541  3 0.0000  1.939776  0.000000  2.117904
542  3 0.0000  1.939776  0.000000  6.403792
543  3 0.0000  1.939776  0.000000 10.689679
544  3 0.0000  1.939776  0.000000 14.975567
545  3 0.0000  1.939776  0.000000 19.261455
546  3 0.0000  1.939776  3.879552  2.117904
547  3 0.0000  1.939776  3.879552  6.403792
548  3 0.0000  1.939776  3.879552 10.689679
549  3 0.0000  1.939776  3.879552 14.975567
550  3 0.0000  1.939776  3.879552 19.261455
551  3 0.0000  1.939776  7.759104  2.117904
552  3 0.0000  1.939776  7.759104  6.403792
553  3 0.0000  1.939776  7.759104 10.689679
554  3 0.0000  1.939776  7.759104 14.975567
555  3 0.0000  1.939776  7.759104 19.261455
556  3 0.0000  1.939776 11.638656  2.117904
557  3 0.0000  1.939776 11.638656  6.403792
558  3 0.0000  1.939776 11.638656 10.689679
559  3 0.0000  1.939776 11.638656 14.975567
560  3 0.0000  1.939776 11.638656 19.261455
561  3 0.0000  1.939776 15.518208  2.117904
562  3 0.0000  1.939776 15.518208  6.403792
563  3 0.0000  1.939776 15.518208 10.689679
564  3 0.0000  1.939776 15.518208 14.975567
565  3 0.0000  1.939776 15.518208 19.261455
566  3 0.0000  1.939776 19.397759  2.117904
567  3 0.0000  1.939776 19.397759  6.403792
568  3 0.0000  1.939776 19.397759 10.689679
569  3 0.0000  1.939776 19.397759 14.975567
570  3 0.0000  1.939776 19.397759 19.261455
571  3 0.0000  5.819328  0.000000  2.117904
572  3 0.0000  5.819328  0.000000  6.403792
573  3 0.0000  5.819328  0.000000 10.689679
574  3 0.0000  5.819328  0.000000 14.975567
575  3 0.0000  5.819328  0.000000 19.261455
576  3 0.0000  5.819328  3.879552  2.117904
577  3 0.0000  5.819328  3.879552  6.403792
578  3 0.0000  5.819328  3.879552 10.689679
579  3 0.0000  5.819328  3.879552 14.975567
580  3 0.0000  5.819328  3.879552 19.261455
581  3 0.0000  5.819328  7.759104  2.117904
582  3 0.0000  5.819328  7.759104  6.403792
583  3 0.0000  5.819328  7.759104 10.689679
584  3 0.0000  5.819328  7.759104 14.975567
585  3 0.0000  5.819328  7.759104 19.261455
586  3 0.0000  5.819328 11.638656  2.117904
587  3 0.0000  5.819328 11.638656  6.403792
588  3 0.0000  5.819328 11.638656 10.689679
589  3 0.0000  5.819328 11.638656 14.975567
590  3 0.0000  5.819328 11.638656 19.261455
591  3 0.0000  5.819328 15.518208  2.117904
592  3 0.0000  5.819328 15.518208  6.403792
593  3 0.0000  5.819328 15.518208 10.689679
594  3 0.0000  5.819328 15.518208 14.975567
595  3 0.0000  5.819328 15.518208 19.261455
596  3 0.0000  5.819328 19.397759  2.117904
597  3 0.0000  5.819328 19.397759  6.403792
598  3 0.0000  5.819328 19.397759 10.689679
599  3 0.0000  5.819328 19.397759 14.975567
600  3 0.0000  5.819328 19.397759 19.261455
601  3 0.0000  9.698880  0.000000  2.117904
602  3 0.0000  9.698880  0.000000  6.403792
603  3 0.0000  9.698880  0.000000 10.689679
604  3 0.0000  9.698880  0.000000 14.975567
605  3 0.0000  9.698880  0.000000 19.261455
606  3 0.0000  9.698880  3.879552  2.117904
607  3 0.0000  9.698880  3.879552  6.403792
608  3 0.0000  9.698880  3.879552 10.689679
609  3 0.0000  9.698880  3.879552 14.975567
610  3 0.0000  9.698880  3.879552 19.261455
611  3 0.0000  9.698880  7.759104  2.117904
612  3 0.0000  9.698880  7.759104  6.403792
613  3 0.0000  9.698880  7.759104 10.689679
614  3 0.0000  9.698880  7.759104 14.975567
615  3 0.0000  9.698880  7.759104 19.261455
616  3 0.0000  9.698880 11.638656  2.117904
617  3 0.0000  9.698880 11.638656  6.403792
618  3 0.0000  9.698880 11.638656 10.689679
619  3 0.0000  9.698880 11.638656 14.975567
620  3 0.0000  9.698880 11.638656 19.261455
621  3 0.0000  9.698880 15.518208  2.117904
622  3 0.0000  9.698880 15.518208  6.403792
623  3 0.0000  9.698880 15.518208 10.689679
624  3 0.0000  9.698880 15.518208 14.975567
625  3 0.0000  9.698880 15.518208 19.261455
626  3 0.0000  9.698880 19.397759  2.117904
627  3 0.0000  9.698880 19.397759  6.403792
628  3 0.0000  9.698880 19.397759 10.689679
629  3 0.0000  9.698880 19.397759 14.975567
630  3 0.0000  9.698880 19.397759 19.261455
631  3 0.0000 13.578432  0.000000  2.117904
632  3 0.0000 13.578432  0.000000  6.403792
633  3 0.0000 13.578432  0.000000 10.689679
634  3 0.0000 13.578432  0.000000 14.975567
635  3 0.0000 13.578432  0.000000 19.261455
636  3 0.0000 13.578432  3.879552  2.117904
637  3 0.0000 13.578432  3.879552  6.403792
638  3 0.0000 13.578432  3.879552 10.689679
639  3 0.0000 13.578432  3.879552 14.975567
640  3 0.0000 13.578432  3.879552 19.261455
641  3 0.0000 13.578432  7.759104  2.117904
642  3 0.0000 13.578432  7.759104  6.403792
643  3 0.0000 13.578432  7.759104 10.689679
644  3 0.0000 13.578432  7.759104 14.975567
645  3 0.0000 13.578432  7.759104 19.261455
646  3 0.0000 13.578432 11.638656  2.117904
647  3 0.0000 13.578432 11.638656  6.403792
648  3 0.0000 13.578432 11.638656 10.689679
649  3 0.0000 13.578432 11.638656 14.975567
650  3 0.0000 13.578432 11.638656 19.261455
651  3 0.0000 13.578432 15.518208  2.117904
652  3 0.0000 13.578432 15.518208  6.403792
653  3 0.0000 13.578432 15.518208 10.689679
654  3 0.0000 13.578432 15.518208 14.975567
655  3 0.0000 13.578432 15.518208 19.261455
656  3 0.0000 13.578432 19.397759  2.117904
657  3 0.0000 13.578432 19.397759  6.403792
658  3 0.0000 13.578432 19.397759 10.689679
659  3 0.0000 13.578432 19.397759 14.975567
660  3 0.0000 13.578432 19.397759 19.261455
661  3 0.0000 17.457984  0.000000  2.117904
662  3 0.0000 17.457984  0.000000  6.403792
663  3 0.0000 17.457984  0.000000 10.689679
664  3 0.0000 17.457984  0.000000 14.975567
665  3 0.0000 17.457984  0.000000 19.261455
666  3 0.0000 17.457984  3.879552  2.117904
667  3 0.0000 17.457984  3.879552  6.403792
668  3 0.0000 17.457984  3.879552 10.689679
669  3 0.0000 17.457984  3.879552 14.975567
670  3 0.0000 17.457984  3.879552 19.261455
671  3 0.0000 17.457984  7.759104  2.117904
672  3 0.0000 17.457984  7.759104  6.403792
673  3 0.0000 17.457984  7.759104 10.689679
674  3 0.0000 17.457984  7.759104 14.975567
675  3 0.0000 17.457984  7.759104 19.261455
676  3 0.0000 17.457984 11.638656  2.117904
677  3 0.0000 17.457984 11.638656  6.403792
678  3 0.0000 17.457984 11.638656 10.689679
679  3 0.0000 17.457984 11.638656 14.975567
680  3 0.0000 17.457984 11.638656 19.261455
681  3 0.0000 17.457984 15.518208  2.117904
682  3 0.0000 17.457984 15.518208  6.403792
683  3 0.0000 17.457984 15.518208 10.689679
684  3 0.0000 17.457984 15.518208 14.975567
685  3 0.0000 17.457984 15.518208 19.261455
686  3 0.0000 17.457984 19.397759  2.117904
687  3 0.0000 17.457984 19.397759  6.403792
688  3 0.0000 17.457984 19.397759 10.689679
689  3 0.0000 17.457984 19.397759 14.975567
690  3 0.0000 17.457984 19.397759 19.261455
691  3 0.0000 21.337535  0.000000  2.117904
692  3 0.0000 21.337535  0.000000  6.403792
693  3 0.0000 21.337535  0.000000 10.689679
694  3 0.0000 21.337535  0.000000 14.975567
695  3 0.0000 21.337535  0.000000 19.261455
696  3 0.0000 21.337535  3.879552  2.117904
697  3 0.0000 21.337535  3.879552  6.403792
698  3 0.0000 21.337535  3.879552 10.689679
699  3 0.0000 21.337535  3.879552 14.975567
700  3 0.0000 21.337535  3.879552 19.261455
701  3 0.0000 21.337535  7.759104  2.117904
702  3 0.0000 21.337535  7.759104  6.403792
703  3 0.0000 21.337535  7.759104 10.689679
704  3 0.0000 21.337535  7.759104 14.975567
705  3 0.0000 21.337535  7.759104 19.261455
706  3 0.0000 21.337535 11.638656  2.117904
707  3 0.0000 21.337535 11.638656  6.403792
708  3 0.0000 21.337535 11.638656 10.689679
709  3 0.0000 21.337535 11.638656 14.975567
710  3 0.0000 21.337535 11.638656 19.261455
711  3 0.0000 21.337535 15.518208  2.117904
712  3 0.0000 21.337535 15.518208  6.403792
713  3 0.0000 21.337535 15.518208 10.689679
714  3 0.0000 21.337535 15.518208 14.975567
715  3 0.0000 21.337535 15.518208 19.261455
716  3 0.0000 21.337535 19.397759  2.117904
717  3 0.0000 21.337535 19.397759  6.403792
718  3 0.0000 21.337535 19.397759 10.689679
719  3 0.0000 21.337535 19.397759 14.975567
720  3 0.0000 21.337535 19.397759 19.261455
721  3 0.0000  1.939776  1.939776  4.267811
722  3 0.0000  1.939776  1.939776  8.553699
723  3 0.0000  1.939776  1.939776 12.839586
724  3 0.0000  1.939776  1.939776 17.125474
725  3 0.0000  1.939776  1.939776 21.411362
726  3 0.0000  1.939776  5.819328  4.267811
727  3 0.0000  1.939776  5.819328  8.553699
728  3 0.0000  1.939776  5.819328 12.839586
729  3 0.0000  1.939776  5.819328 17.125474
730  3 0.0000  1.939776  5.819328 21.411362
731  3 0.0000  1.939776  9.698880  4.267811
732  3 0.0000  1.939776  9.698880  8.553699
733  3 0.0000  1.939776  9.698880 12.839586
734  3 0.0000  1.939776  9.698880 17.125474
735  3 0.0000  1.939776  9.698880 21.411362
736  3 0.0000  1.939776 13.578432  4.267811
737  3 0.0000  1.939776 13.578432  8.553699
738  3 0.0000  1.939776 13.578432 12.839586
739  3 0.0000  1.939776 13.578432 17.125474
740  3 0.0000  1.939776 13.578432 21.411362
741  3 0.0000  1.939776 17.457984  4.267811
742  3 0.0000  1.939776 17.457984  8.553699
743  3 0.0000  1.939776 17.457984 12.839586
744  3 0.0000  1.939776 17.457984 17.125474
745  3 0.0000  1.939776 17.457984 21.411362
746  3 0.0000  1.939776 21.337535  4.267811
747  3 0.0000  1.939776 21.337535  8.553699
748  3 0.0000  1.939776 21.337535 12.839586
749  3 0.0000  1.939776 21.337535 17.125474
750  3 0.0000  1.939776 21.337535 21.411362
751  3 0.0000  5.819328  1.939776  4.267811
752  3 0.0000  5.819328  1.939776  8.553699
753  3 0.0000  5.819328  1.939776 12.839586
754  3 0.0000  5.819328  1.939776 17.125474
755  3 0.0000  5.819328  1.939776 21.411362
756  3 0.0000  5.819328  5.819328  4.267811
757  3 0.0000  5.819328  5.819328  8.553699
758  3 0.0000  5.819328  5.819328 12.839586
759  3 0.0000  5.819328  5.819328 17.125474
760  3 0.0000  5.819328  5.819328 21.411362
761  3 0.0000  5.819328  9.698880  4.267811
762  3 0.0000  5.819328  9.698880  8.553699
763  3 0.0000  5.819328  9.698880 12.839586
764  3 0.0000  5.819328  9.698880 17.125474
765  3 0.0000  5.819328  9.698880 21.411362
766  3 0.0000  5.819328 13.578432  4.267811
767  3 0.0000  5.819328 13.578432  8.553699
768  3 0.0000  5.819328 13.578432 12.839586
769  3 0.0000  5.819328 13.578432 17.125474
770  3 0.0000  5.819328 13.578432 21.411362
771  3 0.0000  5.819328 17.457984  4.267811
772  3 0.0000  5.819328 17.457984  8.553699
773  3 0.0000  5.819328 17.457984 12.839586
774  3 0.0000  5.819328 17.457984 17.125474
775  3 0.0000  5.819328 17.457984 21.411362
776  3 0.0000  5.819328 21.337535  4.267811
777  3 0.0000  5.819328 21.337535  8.553699
778  3 0.0000  5.819328 21.337535 12.839586
779  3 0.0000  5.819328 21.337535 17.125474
780  3 0.0000  5.819328 21.337535 21.411362
781  3 0.0000  9.698880  1.939776  4.267811
782  3 0.0000  9.698880  1.939776  8.553699
783  3 0.0000  9.698880  1.939776 12.839586
784  3 0.0000  9.698880  1.939776 17.125474
785  3 0.0000  9.698880  1.939776 21.411362
786  3 0.0000  9.698880  5.819328  4.267811
787  3 0.0000  9.698880  5.819328  8.553699
788  3 0.0000  9.698880  5.819328 12.839586
789  3 0.0000  9.698880  5.819328 17.125474
790  3 0.0000  9.698880  5.819328 21.411362
791  3 0.0000  9.698880  9.698880  4.267811
792  3 0.0000  9.698880  9.698880  8.553699
793  3 0.0000  9.698880  9.698880 12.839586
794  3 0.0000  9.698880  9.698880 17.125474
795  3 0.0000  9.698880  9.698880 21.411362
796  3 0.0000  9.698880 13.578432  4.267811
797  3 0.0000  9.698880 13.578432  8.553699
798  3 0.0000  9.698880 13.578432 12.839586
799  3 0.0000  9.698880 13.578432 17.125474
800  3 0.0000  9.698880 13.578432 21.411362
801  3 0.0000  9.698880 17.457984  4.267811
802  3 0.0000  9.698880 17.457984  8.553699
803  3 0.0000  9.698880 17.457984 12.839586
804  3 0.0000  9.698880 17.457984 17.125474
805  3 0.0000  9.698880 17.457984 21.411362
806  3 0.0000  9.698880 21.337535  4.267811
807  3 0.0000  9.698880 21.337535  8.553699
808  3 0.0000  9.698880 21.337535 12.839586
809  3 0.0000  9.698880 21.337535 17.125474
810  3 0.0000  9.698880 21.337535 21.411362
811  3 0.0000 13.578432  1.939776  4.267811
812  3 0.0000 13.578432  1.939776  8.553699
813  3 0.0000 13.578432  1.939776 12.839586
814  3 0.0000 13.578432  1.939776 17.125474
815  3 0.0000 13.578432  1.939776 21.411362
816  3 0.0000 13.578432  5.819328  4.267811
817  3 0.0000 13.578432  5.819328  8.553699
818  3 0.0000 13.578432  5.819328 12.839586
819  3 0.0000 13.578432  5.819328 17.125474
820  3 0.0000 13.578432  5.819328 21.411362
821  3 0.0000 13.578432  9.698880  4.267811
822  3 0.0000 13.578432  9.698880  8.553699
823  3 0.0000 13.578432  9.698880 12.839586
824  3 0.0000 13.578432  9.698880 17.125474
825  3 0.0000 13.578432  9.698880 21.411362
826  3 0.0000 13.578432 13.578432  4.267811
827  3 0.0000 13.578432 13.578432  8.553699
828  3 0.0000 13.578432 13.578432 12.839586
829  3 0.0000 13.578432 13.578432 17.125474
830  3 0.0000 13.578432 13.578432 21.411362
831  3 0.0000 13.578432 17.457984  4.267811
832  3 0.0000 13.578432 17.457984  8.553699
833  3 0.0000 13.578432 17.457984 12.839586
834  3 0.0000 13.578432 17.457984 17.125474
835  3 0.0000 13.578432 17.457984 21.411362
836  3 0.0000 13.578432 21.337535  4.267811
837  3 0.0000 13.578432 21.337535  8.553699
838  3 0.0000 13.578432 21.337535 12.839586
839  3 0.0000 13.578432 21.337535 17.125474
840  3 0.0000 13.578432 21.337535 21.411362
841  3 0.0000 17.457984  1.939776  4.267811
842  3 0.0000 17.457984  1.939776  8.553699
843  3 0.0000 17.457984  1.939776 12.839586
844  3 0.0000 17.457984  1.939776 17.125474
845  3 0.0000 17.457984  1.939776 21.411362
846  3 0.0000 17.457984  5.819328  4.267811
847  3 0.0000 17.457984  5.819328  8.553699
848  3 0.0000 17.457984  5.819328 12.839586
849  3 0.0000 17.457984  5.819328 17.125474
850  3 0.0000 17.457984  5.819328 21.411362
851  3 0.0000 17.457984  9.698880  4.267811
852  3 0.0000 17.457984  9.698880  8.553699
853  3 0.0000 17.457984  9.698880 12.839586
854  3 0.0000 17.457984  9.698880 17.125474
855  3 0.0000 17.457984  9.698880 21.411362
856  3 0.0000 17.457984 13.578432  4.267811
857  3 0.0000 17.457984 13.578432  8.553699
858  3 0.0000 17.457984 13.578432 12.839586
859  3 0.0000 17.457984 13.578432 17.125474
860  3 0.0000 17.457984 13.578432 21.411362
861  3 0.0000 17.457984 17.457984  4.267811
862  3 0.0000 17.457984 17.457984  8.553699
863  3 0.0000 17.457984 17.457984 12.839586
864  3 0.0000 17.457984 17.457984 17.125474
865  3 0.0000 17.457984 17.457984 21.411362
866  3 0.0000 17.457984 21.337535  4.267811
867  3 0.0000 17.457984 21.337535  8.553699
868  3 0.0000 17.457984 21.337535 12.839586
869  3 0.0000 17.457984 21.337535 17.125474
870  3 0.0000 17.457984 21.337535 21.411362
871  3 0.0000 21.337535  1.939776  4.267811
872  3 0.0000 21.337535  1.939776  8.553699
873  3 0.0000 21.337535  1.939776 12.839586
874  3 0.0000 21.337535  1.939776 17.125474
875  3 0.0000 21.337535  1.939776 21.411362
876  3 0.0000 21.337535  5.819328  4.267811
877  3 0.0000 21.337535  5.819328  8.553699
878  3 0.0000 21.337535  5.819328 12.839586
879  3 0.0000 21.337535  5.819328 17.125474
880  3 0.0000 21.337535  5.819328 21.411362
881  3 0.0000 21.337535  9.698880  4.267811
882  3 0.0000 21.337535  9.698880  8.553699
883  3 0.0000 21.337535  9.698880 12.839586
884  3 0.0000 21.337535  9.698880 17.125474
885  3 0.0000 21.337535  9.698880 21.411362
886  3 0.0000 21.337535 13.578432  4.267811
887  3 0.0000 21.337535 13.578432  8.553699
888  3 0.0000 21.337535 13.578432 12.839586
889  3 0.0000 21.337535 13.578432 17.125474
890  3 0.0000 21.337535 13.578432 21.411362
891  3 0.0000 21.337535 17.457984  4.267811
892  3 0.0000 21.337535 17.457984  8.553699
893  3 0.0000 21.337535 17.457984 12.839586
894  3 0.0000 21.337535 17.457984 17.125474
895  3 0.0000 21.337535 17.457984 21.411362
896  3 0.0000 21.337535 21.337535  4.267811
897  3 0.0000 21.337535 21.337535  8.553699
898  3 0.0000 21.337535 21.337535 12.839586
899  3 0.0000 21.337535 21.337535 17.125474
900  3 0.0000 21.337535 21.337535 21.411362

