Generated by pymatgen.io.lammps.data.LammpsData

320  atoms

  3  atom types

0.000000 21.109467  xlo xhi
0.000000 42.323122  ylo yhi
0.000000 18.510717  zlo zhi

Masses

1  132.905452
2  137.327000
3  126.904470

Atoms

1    1 0.0000  3.958025  0.885156 12.518696
2    1 0.0000  3.958025 11.465936 12.518696
3    1 0.0000  3.958025 22.046717 12.518696
4    1 0.0000  3.958025 32.627497 12.518696
5    1 0.0000  9.235392  0.885156 12.518696
6    1 0.0000  9.235392 11.465936 12.518696
7    1 0.0000  9.235392 22.046717 12.518696
8    1 0.0000  9.235392 32.627497 12.518696
9    1 0.0000 14.512759  0.885156 12.518696
10   1 0.0000 14.512759 11.465936 12.518696
11   1 0.0000 14.512759 22.046717 12.518696
12   1 0.0000 14.512759 32.627497 12.518696
13   1 0.0000 19.790125  0.885156 12.518696
14   1 0.0000 19.790125 11.465936 12.518696
15   1 0.0000 19.790125 22.046717 12.518696
16   1 0.0000 19.790125 32.627497 12.518696
17   1 0.0000  1.319342  9.695625  5.992021
18   1 0.0000  1.319342 20.276406  5.992021
19   1 0.0000  1.319342 30.857186  5.992021
20   1 0.0000  1.319342 41.437967  5.992021
21   1 0.0000  6.596708  9.695625  5.992021
22   1 0.0000  6.596708 20.276406  5.992021
23   1 0.0000  6.596708 30.857186  5.992021
24   1 0.0000  6.596708 41.437967  5.992021
25   1 0.0000 11.874075  9.695625  5.992021
26   1 0.0000 11.874075 20.276406  5.992021
27   1 0.0000 11.874075 30.857186  5.992021
28   1 0.0000 11.874075 41.437967  5.992021
29   1 0.0000 17.151442  9.695625  5.992021
30   1 0.0000 17.151442 20.276406  5.992021
31   1 0.0000 17.151442 30.857186  5.992021
32   1 0.0000 17.151442 41.437967  5.992021
33   1 0.0000  3.958025  6.175546 15.247380
34   1 0.0000  3.958025 16.756326 15.247380
35   1 0.0000  3.958025 27.337107 15.247380
36   1 0.0000  3.958025 37.917887 15.247380
37   1 0.0000  9.235392  6.175546 15.247380
38   1 0.0000  9.235392 16.756326 15.247380
39   1 0.0000  9.235392 27.337107 15.247380
40   1 0.0000  9.235392 37.917887 15.247380
41   1 0.0000 14.512759  6.175546 15.247380
42   1 0.0000 14.512759 16.756326 15.247380
43   1 0.0000 14.512759 27.337107 15.247380
44   1 0.0000 14.512759 37.917887 15.247380
45   1 0.0000 19.790125  6.175546 15.247380
46   1 0.0000 19.790125 16.756326 15.247380
47   1 0.0000 19.790125 27.337107 15.247380
48   1 0.0000 19.790125 37.917887 15.247380
49   1 0.0000  1.319342  4.405235  3.263338
50   1 0.0000  1.319342 14.986015  3.263338
51   1 0.0000  1.319342 25.566796  3.263338
52   1 0.0000  1.319342 36.147576  3.263338
53   1 0.0000  6.596708  4.405235  3.263338
54   1 0.0000  6.596708 14.986015  3.263338
55   1 0.0000  6.596708 25.566796  3.263338
56   1 0.0000  6.596708 36.147576  3.263338
57   1 0.0000 11.874075  4.405235  3.263338
58   1 0.0000 11.874075 14.986015  3.263338
59   1 0.0000 11.874075 25.566796  3.263338
60   1 0.0000 11.874075 36.147576  3.263338
61   1 0.0000 17.151442  4.405235  3.263338
62   1 0.0000 17.151442 14.986015  3.263338
63   1 0.0000 17.151442 25.566796  3.263338
64   1 0.0000 17.151442 36.147576  3.263338
65   2 0.0000  1.319342  1.844012 17.372503
66   2 0.0000  1.319342 12.424792 17.372503
67   2 0.0000  1.319342 23.005573 17.372503
68   2 0.0000  1.319342 33.586353 17.372503
69   2 0.0000  6.596708  1.844012 17.372503
70   2 0.0000  6.596708 12.424792 17.372503
71   2 0.0000  6.596708 23.005573 17.372503
72   2 0.0000  6.596708 33.586353 17.372503
73   2 0.0000 11.874075  1.844012 17.372503
74   2 0.0000 11.874075 12.424792 17.372503
75   2 0.0000 11.874075 23.005573 17.372503
76   2 0.0000 11.874075 33.586353 17.372503
77   2 0.0000 17.151442  1.844012 17.372503
78   2 0.0000 17.151442 12.424792 17.372503
79   2 0.0000 17.151442 23.005573 17.372503
80   2 0.0000 17.151442 33.586353 17.372503
81   2 0.0000  3.958025  8.736769  1.138215
82   2 0.0000  3.958025 19.317549  1.138215
83   2 0.0000  3.958025 29.898330  1.138215
84   2 0.0000  3.958025 40.479110  1.138215
85   2 0.0000  9.235392  8.736769  1.138215
86   2 0.0000  9.235392 19.317549  1.138215
87   2 0.0000  9.235392 29.898330  1.138215
88   2 0.0000  9.235392 40.479110  1.138215
89   2 0.0000 14.512759  8.736769  1.138215
90   2 0.0000 14.512759 19.317549  1.138215
91   2 0.0000 14.512759 29.898330  1.138215
92   2 0.0000 14.512759 40.479110  1.138215
93   2 0.0000 19.790125  8.736769  1.138215
94   2 0.0000 19.790125 19.317549  1.138215
95   2 0.0000 19.790125 29.898330  1.138215
96   2 0.0000 19.790125 40.479110  1.138215
97   2 0.0000  1.319342  7.134402 10.393573
98   2 0.0000  1.319342 17.715182 10.393573
99   2 0.0000  1.319342 28.295963 10.393573
100  2 0.0000  1.319342 38.876743 10.393573
101  2 0.0000  6.596708  7.134402 10.393573
102  2 0.0000  6.596708 17.715182 10.393573
103  2 0.0000  6.596708 28.295963 10.393573
104  2 0.0000  6.596708 38.876743 10.393573
105  2 0.0000 11.874075  7.134402 10.393573
106  2 0.0000 11.874075 17.715182 10.393573
107  2 0.0000 11.874075 28.295963 10.393573
108  2 0.0000 11.874075 38.876743 10.393573
109  2 0.0000 17.151442  7.134402 10.393573
110  2 0.0000 17.151442 17.715182 10.393573
111  2 0.0000 17.151442 28.295963 10.393573
112  2 0.0000 17.151442 38.876743 10.393573
113  2 0.0000  3.958025  3.446379  8.117144
114  2 0.0000  3.958025 14.027159  8.117144
115  2 0.0000  3.958025 24.607940  8.117144
116  2 0.0000  3.958025 35.188720  8.117144
117  2 0.0000  9.235392  3.446379  8.117144
118  2 0.0000  9.235392 14.027159  8.117144
119  2 0.0000  9.235392 24.607940  8.117144
120  2 0.0000  9.235392 35.188720  8.117144
121  2 0.0000 14.512759  3.446379  8.117144
122  2 0.0000 14.512759 14.027159  8.117144
123  2 0.0000 14.512759 24.607940  8.117144
124  2 0.0000 14.512759 35.188720  8.117144
125  2 0.0000 19.790125  3.446379  8.117144
126  2 0.0000 19.790125 14.027159  8.117144
127  2 0.0000 19.790125 24.607940  8.117144
128  2 0.0000 19.790125 35.188720  8.117144
129  3 0.0000  3.958025  3.637831  0.212423
130  3 0.0000  3.958025 14.218612  0.212423
131  3 0.0000  3.958025 24.799392  0.212423
132  3 0.0000  3.958025 35.380173  0.212423
133  3 0.0000  9.235392  3.637831  0.212423
134  3 0.0000  9.235392 14.218612  0.212423
135  3 0.0000  9.235392 24.799392  0.212423
136  3 0.0000  9.235392 35.380173  0.212423
137  3 0.0000 14.512759  3.637831  0.212423
138  3 0.0000 14.512759 14.218612  0.212423
139  3 0.0000 14.512759 24.799392  0.212423
140  3 0.0000 14.512759 35.380173  0.212423
141  3 0.0000 19.790125  3.637831  0.212423
142  3 0.0000 19.790125 14.218612  0.212423
143  3 0.0000 19.790125 24.799392  0.212423
144  3 0.0000 19.790125 35.380173  0.212423
145  3 0.0000  1.319342  6.942949 18.298295
146  3 0.0000  1.319342 17.523730 18.298295
147  3 0.0000  1.319342 28.104510 18.298295
148  3 0.0000  1.319342 38.685291 18.298295
149  3 0.0000  6.596708  6.942949 18.298295
150  3 0.0000  6.596708 17.523730 18.298295
151  3 0.0000  6.596708 28.104510 18.298295
152  3 0.0000  6.596708 38.685291 18.298295
153  3 0.0000 11.874075  6.942949 18.298295
154  3 0.0000 11.874075 17.523730 18.298295
155  3 0.0000 11.874075 28.104510 18.298295
156  3 0.0000 11.874075 38.685291 18.298295
157  3 0.0000 17.151442  6.942949 18.298295
158  3 0.0000 17.151442 17.523730 18.298295
159  3 0.0000 17.151442 28.104510 18.298295
160  3 0.0000 17.151442 38.685291 18.298295
161  3 0.0000  3.958025  8.928222  9.042936
162  3 0.0000  3.958025 19.509002  9.042936
163  3 0.0000  3.958025 30.089783  9.042936
164  3 0.0000  3.958025 40.670563  9.042936
165  3 0.0000  9.235392  8.928222  9.042936
166  3 0.0000  9.235392 19.509002  9.042936
167  3 0.0000  9.235392 30.089783  9.042936
168  3 0.0000  9.235392 40.670563  9.042936
169  3 0.0000 14.512759  8.928222  9.042936
170  3 0.0000 14.512759 19.509002  9.042936
171  3 0.0000 14.512759 30.089783  9.042936
172  3 0.0000 14.512759 40.670563  9.042936
173  3 0.0000 19.790125  8.928222  9.042936
174  3 0.0000 19.790125 19.509002  9.042936
175  3 0.0000 19.790125 30.089783  9.042936
176  3 0.0000 19.790125 40.670563  9.042936
177  3 0.0000  1.319342  1.652559  9.467781
178  3 0.0000  1.319342 12.233339  9.467781
179  3 0.0000  1.319342 22.814120  9.467781
180  3 0.0000  1.319342 33.394900  9.467781
181  3 0.0000  6.596708  1.652559  9.467781
182  3 0.0000  6.596708 12.233339  9.467781
183  3 0.0000  6.596708 22.814120  9.467781
184  3 0.0000  6.596708 33.394900  9.467781
185  3 0.0000 11.874075  1.652559  9.467781
186  3 0.0000 11.874075 12.233339  9.467781
187  3 0.0000 11.874075 22.814120  9.467781
188  3 0.0000 11.874075 33.394900  9.467781
189  3 0.0000 17.151442  1.652559  9.467781
190  3 0.0000 17.151442 12.233339  9.467781
191  3 0.0000 17.151442 22.814120  9.467781
192  3 0.0000 17.151442 33.394900  9.467781
193  3 0.0000  1.319342  0.287804  2.016380
194  3 0.0000  1.319342 10.868584  2.016380
195  3 0.0000  1.319342 21.449365  2.016380
196  3 0.0000  1.319342 32.030145  2.016380
197  3 0.0000  6.596708  0.287804  2.016380
198  3 0.0000  6.596708 10.868584  2.016380
199  3 0.0000  6.596708 21.449365  2.016380
200  3 0.0000  6.596708 32.030145  2.016380
201  3 0.0000 11.874075  0.287804  2.016380
202  3 0.0000 11.874075 10.868584  2.016380
203  3 0.0000 11.874075 21.449365  2.016380
204  3 0.0000 11.874075 32.030145  2.016380
205  3 0.0000 17.151442  0.287804  2.016380
206  3 0.0000 17.151442 10.868584  2.016380
207  3 0.0000 17.151442 21.449365  2.016380
208  3 0.0000 17.151442 32.030145  2.016380
209  3 0.0000  3.958025 10.292977 16.494337
210  3 0.0000  3.958025 20.873757 16.494337
211  3 0.0000  3.958025 31.454538 16.494337
212  3 0.0000  3.958025 42.035318 16.494337
213  3 0.0000  9.235392 10.292977 16.494337
214  3 0.0000  9.235392 20.873757 16.494337
215  3 0.0000  9.235392 31.454538 16.494337
216  3 0.0000  9.235392 42.035318 16.494337
217  3 0.0000 14.512759 10.292977 16.494337
218  3 0.0000 14.512759 20.873757 16.494337
219  3 0.0000 14.512759 31.454538 16.494337
220  3 0.0000 14.512759 42.035318 16.494337
221  3 0.0000 19.790125 10.292977 16.494337
222  3 0.0000 19.790125 20.873757 16.494337
223  3 0.0000 19.790125 31.454538 16.494337
224  3 0.0000 19.790125 42.035318 16.494337
225  3 0.0000  1.319342  5.578194  7.238979
226  3 0.0000  1.319342 16.158975  7.238979
227  3 0.0000  1.319342 26.739755  7.238979
228  3 0.0000  1.319342 37.320536  7.238979
229  3 0.0000  6.596708  5.578194  7.238979
230  3 0.0000  6.596708 16.158975  7.238979
231  3 0.0000  6.596708 26.739755  7.238979
232  3 0.0000  6.596708 37.320536  7.238979
233  3 0.0000 11.874075  5.578194  7.238979
234  3 0.0000 11.874075 16.158975  7.238979
235  3 0.0000 11.874075 26.739755  7.238979
236  3 0.0000 11.874075 37.320536  7.238979
237  3 0.0000 17.151442  5.578194  7.238979
238  3 0.0000 17.151442 16.158975  7.238979
239  3 0.0000 17.151442 26.739755  7.238979
240  3 0.0000 17.151442 37.320536  7.238979
241  3 0.0000  3.958025  5.002586 11.271739
242  3 0.0000  3.958025 15.583367 11.271739
243  3 0.0000  3.958025 26.164147 11.271739
244  3 0.0000  3.958025 36.744928 11.271739
245  3 0.0000  9.235392  5.002586 11.271739
246  3 0.0000  9.235392 15.583367 11.271739
247  3 0.0000  9.235392 26.164147 11.271739
248  3 0.0000  9.235392 36.744928 11.271739
249  3 0.0000 14.512759  5.002586 11.271739
250  3 0.0000 14.512759 15.583367 11.271739
251  3 0.0000 14.512759 26.164147 11.271739
252  3 0.0000 14.512759 36.744928 11.271739
253  3 0.0000 19.790125  5.002586 11.271739
254  3 0.0000 19.790125 15.583367 11.271739
255  3 0.0000 19.790125 26.164147 11.271739
256  3 0.0000 19.790125 36.744928 11.271739
257  3 0.0000  1.319342  3.295416 14.336963
258  3 0.0000  1.319342 13.876197 14.336963
259  3 0.0000  1.319342 24.456977 14.336963
260  3 0.0000  1.319342 35.037758 14.336963
261  3 0.0000  6.596708  3.295416 14.336963
262  3 0.0000  6.596708 13.876197 14.336963
263  3 0.0000  6.596708 24.456977 14.336963
264  3 0.0000  6.596708 35.037758 14.336963
265  3 0.0000 11.874075  3.295416 14.336963
266  3 0.0000 11.874075 13.876197 14.336963
267  3 0.0000 11.874075 24.456977 14.336963
268  3 0.0000 11.874075 35.037758 14.336963
269  3 0.0000 17.151442  3.295416 14.336963
270  3 0.0000 17.151442 13.876197 14.336963
271  3 0.0000 17.151442 24.456977 14.336963
272  3 0.0000 17.151442 35.037758 14.336963
273  3 0.0000  3.958025  7.285364  4.173754
274  3 0.0000  3.958025 17.866145  4.173754
275  3 0.0000  3.958025 28.446925  4.173754
276  3 0.0000  3.958025 39.027706  4.173754
277  3 0.0000  9.235392  7.285364  4.173754
278  3 0.0000  9.235392 17.866145  4.173754
279  3 0.0000  9.235392 28.446925  4.173754
280  3 0.0000  9.235392 39.027706  4.173754
281  3 0.0000 14.512759  7.285364  4.173754
282  3 0.0000 14.512759 17.866145  4.173754
283  3 0.0000 14.512759 28.446925  4.173754
284  3 0.0000 14.512759 39.027706  4.173754
285  3 0.0000 19.790125  7.285364  4.173754
286  3 0.0000 19.790125 17.866145  4.173754
287  3 0.0000 19.790125 28.446925  4.173754
288  3 0.0000 19.790125 39.027706  4.173754
289  3 0.0000  1.319342  8.585807 13.429113
290  3 0.0000  1.319342 19.166587 13.429113
291  3 0.0000  1.319342 29.747368 13.429113
292  3 0.0000  1.319342 40.328148 13.429113
293  3 0.0000  6.596708  8.585807 13.429113
294  3 0.0000  6.596708 19.166587 13.429113
295  3 0.0000  6.596708 29.747368 13.429113
296  3 0.0000  6.596708 40.328148 13.429113
297  3 0.0000 11.874075  8.585807 13.429113
298  3 0.0000 11.874075 19.166587 13.429113
299  3 0.0000 11.874075 29.747368 13.429113
300  3 0.0000 11.874075 40.328148 13.429113
301  3 0.0000 17.151442  8.585807 13.429113
302  3 0.0000 17.151442 19.166587 13.429113
303  3 0.0000 17.151442 29.747368 13.429113
304  3 0.0000 17.151442 40.328148 13.429113
305  3 0.0000  3.958025  1.994974  5.081604
306  3 0.0000  3.958025 12.575755  5.081604
307  3 0.0000  3.958025 23.156535  5.081604
308  3 0.0000  3.958025 33.737316  5.081604
309  3 0.0000  9.235392  1.994974  5.081604
310  3 0.0000  9.235392 12.575755  5.081604
311  3 0.0000  9.235392 23.156535  5.081604
312  3 0.0000  9.235392 33.737316  5.081604
313  3 0.0000 14.512759  1.994974  5.081604
314  3 0.0000 14.512759 12.575755  5.081604
315  3 0.0000 14.512759 23.156535  5.081604
316  3 0.0000 14.512759 33.737316  5.081604
317  3 0.0000 19.790125  1.994974  5.081604
318  3 0.0000 19.790125 12.575755  5.081604
319  3 0.0000 19.790125 23.156535  5.081604
320  3 0.0000 19.790125 33.737316  5.081604

