Generated by pymatgen.io.lammps.data.LammpsData

304  atoms

  2  atom types

0.000000 6.153563  xlo xhi
0.000000 5.329133  ylo yhi
0.000000 95.614460  zlo zhi
3.076796 3.076744 1.776353  xy xz yz

Masses

1  28.0855
2  12.0107

Atoms

1    1 0.0000  1.538423 0.888206 47.807224
2    1 0.0000  3.076795 1.776383 95.614455
3    1 0.0000  3.076821 3.552772 47.807224
4    1 0.0000  4.615193 4.440949 95.614455
5    1 0.0000  4.615204 0.888206 47.807224
6    1 0.0000  6.153576 1.776383 95.614455
7    1 0.0000  6.153602 3.552772 47.807224
8    1 0.0000  7.691974 4.440949 95.614455
9    1 0.0000  4.615150 2.664549 10.064894
10   1 0.0000  6.153522 3.552726 57.872125
11   1 0.0000  6.153548 5.329116 10.064894
12   1 0.0000  7.691920 6.217293 57.872125
13   1 0.0000  7.691931 2.664549 10.064894
14   1 0.0000  9.230303 3.552726 57.872125
15   1 0.0000  9.230329 5.329116 10.064894
16   1 0.0000 10.768701 6.217293 57.872125
17   1 0.0000  4.615123 2.664534 15.097668
18   1 0.0000  6.153495 3.552710 62.904898
19   1 0.0000  6.153521 5.329100 15.097668
20   1 0.0000  7.691893 6.217277 62.904898
21   1 0.0000  7.691904 2.664534 15.097668
22   1 0.0000  9.230276 3.552710 62.904898
23   1 0.0000  9.230302 5.329100 15.097668
24   1 0.0000 10.768674 6.217277 62.904898
25   1 0.0000  4.615152 2.664551 25.158695
26   1 0.0000  6.153525 3.552728 72.965926
27   1 0.0000  6.153551 5.329117 25.158695
28   1 0.0000  7.691923 6.217294 72.965926
29   1 0.0000  7.691934 2.664551 25.158695
30   1 0.0000  9.230306 3.552728 72.965926
31   1 0.0000  9.230332 5.329117 25.158695
32   1 0.0000 10.768704 6.217294 72.965926
33   1 0.0000  4.615079 2.664509 30.192642
34   1 0.0000  6.153452 3.552685 77.999872
35   1 0.0000  6.153477 5.329075 30.192642
36   1 0.0000  7.691850 6.217252 77.999872
37   1 0.0000  7.691861 2.664509 30.192642
38   1 0.0000  9.230233 3.552685 77.999872
39   1 0.0000  9.230259 5.329075 30.192642
40   1 0.0000 10.768631 6.217252 77.999872
41   1 0.0000  4.615105 2.664523 40.255431
42   1 0.0000  6.153477 3.552700 88.062661
43   1 0.0000  6.153503 5.329090 40.255431
44   1 0.0000  7.691875 6.217267 88.062661
45   1 0.0000  7.691886 2.664523 40.255431
46   1 0.0000  9.230258 3.552700 88.062661
47   1 0.0000  9.230284 5.329090 40.255431
48   1 0.0000 10.768656 6.217267 88.062661
49   1 0.0000  4.615129 2.664537 45.292993
50   1 0.0000  6.153501 3.552714 93.100223
51   1 0.0000  6.153527 5.329104 45.292993
52   1 0.0000  7.691899 6.217280 93.100223
53   1 0.0000  7.691910 2.664537 45.292993
54   1 0.0000  9.230282 3.552714 93.100223
55   1 0.0000  9.230308 5.329104 45.292993
56   1 0.0000 10.768680 6.217280 93.100223
57   1 0.0000  3.076866 1.776424  5.032026
58   1 0.0000  4.615239 2.664601 52.839256
59   1 0.0000  4.615265 4.440990  5.032026
60   1 0.0000  6.153637 5.329167 52.839256
61   1 0.0000  6.153648 1.776424  5.032026
62   1 0.0000  7.692020 2.664601 52.839256
63   1 0.0000  7.692046 4.440990  5.032026
64   1 0.0000  9.230418 5.329167 52.839256
65   1 0.0000  3.076697 1.776326 12.581964
66   1 0.0000  4.615069 2.664503 60.389194
67   1 0.0000  4.615095 4.440892 12.581964
68   1 0.0000  6.153467 5.329069 60.389194
69   1 0.0000  6.153478 1.776326 12.581964
70   1 0.0000  7.691850 2.664503 60.389194
71   1 0.0000  7.691876 4.440892 12.581964
72   1 0.0000  9.230248 5.329069 60.389194
73   1 0.0000  3.076869 1.776426 20.128823
74   1 0.0000  4.615242 2.664602 67.936053
75   1 0.0000  4.615268 4.440992 20.128823
76   1 0.0000  6.153640 5.329169 67.936053
77   1 0.0000  6.153651 1.776426 20.128823
78   1 0.0000  7.692023 2.664602 67.936053
79   1 0.0000  7.692049 4.440992 20.128823
80   1 0.0000  9.230421 5.329169 67.936053
81   1 0.0000  3.076644 1.776296 27.675318
82   1 0.0000  4.615016 2.664472 75.482548
83   1 0.0000  4.615042 4.440862 27.675318
84   1 0.0000  6.153414 5.329039 75.482548
85   1 0.0000  6.153425 1.776296 27.675318
86   1 0.0000  7.691798 2.664472 75.482548
87   1 0.0000  7.691823 4.440862 27.675318
88   1 0.0000  9.230196 5.329039 75.482548
89   1 0.0000  3.076828 1.776402 35.225366
90   1 0.0000  4.615200 2.664578 83.032596
91   1 0.0000  4.615226 4.440968 35.225366
92   1 0.0000  6.153598 5.329145 83.032596
93   1 0.0000  6.153609 1.776402 35.225366
94   1 0.0000  7.691981 2.664578 83.032596
95   1 0.0000  7.692007 4.440968 35.225366
96   1 0.0000  9.230379 5.329145 83.032596
97   1 0.0000  3.076741 1.776352 42.774304
98   1 0.0000  4.615113 2.664528 90.581534
99   1 0.0000  4.615139 4.440918 42.774304
100  1 0.0000  6.153511 5.329095 90.581534
101  1 0.0000  6.153522 1.776352 42.774304
102  1 0.0000  7.691895 2.664528 90.581534
103  1 0.0000  7.691921 4.440918 42.774304
104  1 0.0000  9.230293 5.329095 90.581534
105  1 0.0000  1.538406 0.888196  2.513565
106  1 0.0000  3.076778 1.776373 50.320795
107  1 0.0000  3.076804 3.552763  2.513565
108  1 0.0000  4.615176 4.440939 50.320795
109  1 0.0000  4.615187 0.888196  2.513565
110  1 0.0000  6.153559 1.776373 50.320795
111  1 0.0000  6.153585 3.552763  2.513565
112  1 0.0000  7.691957 4.440939 50.320795
113  1 0.0000  1.538411 0.888199  7.550739
114  1 0.0000  3.076784 1.776376 55.357970
115  1 0.0000  3.076809 3.552766  7.550739
116  1 0.0000  4.615182 4.440943 55.357970
117  1 0.0000  4.615193 0.888199  7.550739
118  1 0.0000  6.153565 1.776376 55.357970
119  1 0.0000  6.153591 3.552766  7.550739
120  1 0.0000  7.691963 4.440943 55.357970
121  1 0.0000  1.538502 0.888252 17.610510
122  1 0.0000  3.076874 1.776429 65.417741
123  1 0.0000  3.076900 3.552818 17.610510
124  1 0.0000  4.615273 4.440995 65.417741
125  1 0.0000  4.615284 0.888252 17.610510
126  1 0.0000  6.153656 1.776429 65.417741
127  1 0.0000  6.153682 3.552818 17.610510
128  1 0.0000  7.692054 4.440995 65.417741
129  1 0.0000  1.538400 0.888193 22.646127
130  1 0.0000  3.076773 1.776370 70.453357
131  1 0.0000  3.076798 3.552759 22.646127
132  1 0.0000  4.615171 4.440936 70.453357
133  1 0.0000  4.615182 0.888193 22.646127
134  1 0.0000  6.153554 1.776370 70.453357
135  1 0.0000  6.153580 3.552759 22.646127
136  1 0.0000  7.691952 4.440936 70.453357
137  1 0.0000  1.538385 0.888184 32.707079
138  1 0.0000  3.076758 1.776361 80.514310
139  1 0.0000  3.076784 3.552751 32.707079
140  1 0.0000  4.615156 4.440928 80.514310
141  1 0.0000  4.615167 0.888184 32.707079
142  1 0.0000  6.153539 1.776361 80.514310
143  1 0.0000  6.153565 3.552751 32.707079
144  1 0.0000  7.691937 4.440928 80.514310
145  1 0.0000  1.538368 0.888174 37.742154
146  1 0.0000  3.076740 1.776351 85.549384
147  1 0.0000  3.076766 3.552741 37.742154
148  1 0.0000  4.615138 4.440917 85.549384
149  1 0.0000  4.615149 0.888174 37.742154
150  1 0.0000  6.153521 1.776351 85.549384
151  1 0.0000  6.153547 3.552741 37.742154
152  1 0.0000  7.691919 4.440917 85.549384
153  2 0.0000  4.615175 2.664564  1.887442
154  2 0.0000  6.153547 3.552741 49.694673
155  2 0.0000  6.153573 5.329130  1.887442
156  2 0.0000  7.691945 6.217307 49.694673
157  2 0.0000  7.691956 2.664564  1.887442
158  2 0.0000  9.230328 3.552741 49.694673
159  2 0.0000  9.230354 5.329130  1.887442
160  2 0.0000 10.768727 6.217307 49.694673
161  2 0.0000  4.615151 2.664550 11.951283
162  2 0.0000  6.153523 3.552727 59.758513
163  2 0.0000  6.153549 5.329116 11.951283
164  2 0.0000  7.691921 6.217293 59.758513
165  2 0.0000  7.691932 2.664550 11.951283
166  2 0.0000  9.230304 3.552727 59.758513
167  2 0.0000  9.230330 5.329116 11.951283
168  2 0.0000 10.768702 6.217293 59.758513
169  2 0.0000  4.615216 2.664587 16.983957
170  2 0.0000  6.153588 3.552764 64.791188
171  2 0.0000  6.153614 5.329154 16.983957
172  2 0.0000  7.691986 6.217331 64.791188
173  2 0.0000  7.691997 2.664587 16.983957
174  2 0.0000  9.230369 3.552764 64.791188
175  2 0.0000  9.230395 5.329154 16.983957
176  2 0.0000 10.768767 6.217331 64.791188
177  2 0.0000  4.615160 2.664555 27.044547
178  2 0.0000  6.153532 3.552732 74.851777
179  2 0.0000  6.153558 5.329122 27.044547
180  2 0.0000  7.691930 6.217299 74.851777
181  2 0.0000  7.691941 2.664555 27.044547
182  2 0.0000  9.230314 3.552732 74.851777
183  2 0.0000  9.230340 5.329122 27.044547
184  2 0.0000 10.768712 6.217299 74.851777
185  2 0.0000  4.615213 2.664586 32.080090
186  2 0.0000  6.153586 3.552763 79.887320
187  2 0.0000  6.153611 5.329153 32.080090
188  2 0.0000  7.691984 6.217329 79.887320
189  2 0.0000  7.691995 2.664586 32.080090
190  2 0.0000  9.230367 3.552763 79.887320
191  2 0.0000  9.230393 5.329153 32.080090
192  2 0.0000 10.768765 6.217329 79.887320
193  2 0.0000  4.615206 2.664582 42.142503
194  2 0.0000  6.153578 3.552758 89.949733
195  2 0.0000  6.153604 5.329148 42.142503
196  2 0.0000  7.691976 6.217325 89.949733
197  2 0.0000  7.691987 2.664582 42.142503
198  2 0.0000  9.230359 3.552758 89.949733
199  2 0.0000  9.230385 5.329148 42.142503
200  2 0.0000 10.768757 6.217325 89.949733
201  2 0.0000  4.615197 2.664577 47.180412
202  2 0.0000  6.153570 3.552754 94.987642
203  2 0.0000  6.153596 5.329143 47.180412
204  2 0.0000  7.691968 6.217320 94.987642
205  2 0.0000  7.691979 2.664577 47.180412
206  2 0.0000  9.230351 3.552754 94.987642
207  2 0.0000  9.230377 5.329143 47.180412
208  2 0.0000 10.768749 6.217320 94.987642
209  2 0.0000  3.076769 1.776368  6.925469
210  2 0.0000  4.615141 2.664544 54.732699
211  2 0.0000  4.615167 4.440934  6.925469
212  2 0.0000  6.153539 5.329111 54.732699
213  2 0.0000  6.153550 1.776368  6.925469
214  2 0.0000  7.691923 2.664544 54.732699
215  2 0.0000  7.691949 4.440934  6.925469
216  2 0.0000  9.230321 5.329111 54.732699
217  2 0.0000  3.076767 1.776366 14.473474
218  2 0.0000  4.615139 2.664543 62.280705
219  2 0.0000  4.615165 4.440933 14.473474
220  2 0.0000  6.153537 5.329110 62.280705
221  2 0.0000  6.153548 1.776366 14.473474
222  2 0.0000  7.691920 2.664543 62.280705
223  2 0.0000  7.691946 4.440933 14.473474
224  2 0.0000  9.230318 5.329110 62.280705
225  2 0.0000  3.076782 1.776375 22.021422
226  2 0.0000  4.615154 2.664552 69.828653
227  2 0.0000  4.615180 4.440942 22.021422
228  2 0.0000  6.153552 5.329118 69.828653
229  2 0.0000  6.153563 1.776375 22.021422
230  2 0.0000  7.691935 2.664552 69.828653
231  2 0.0000  7.691961 4.440942 22.021422
232  2 0.0000  9.230333 5.329118 69.828653
233  2 0.0000  3.076777 1.776372 29.567644
234  2 0.0000  4.615149 2.664549 77.374874
235  2 0.0000  4.615175 4.440939 29.567644
236  2 0.0000  6.153547 5.329115 77.374874
237  2 0.0000  6.153558 1.776372 29.567644
238  2 0.0000  7.691930 2.664549 77.374874
239  2 0.0000  7.691956 4.440939 29.567644
240  2 0.0000  9.230329 5.329115 77.374874
241  2 0.0000  3.076766 1.776366 37.117670
242  2 0.0000  4.615138 2.664543 84.924901
243  2 0.0000  4.615164 4.440933 37.117670
244  2 0.0000  6.153537 5.329109 84.924901
245  2 0.0000  6.153548 1.776366 37.117670
246  2 0.0000  7.691920 2.664543 84.924901
247  2 0.0000  7.691946 4.440933 37.117670
248  2 0.0000  9.230318 5.329109 84.924901
249  2 0.0000  3.076760 1.776362 44.667718
250  2 0.0000  4.615132 2.664539 92.474949
251  2 0.0000  4.615158 4.440929 44.667718
252  2 0.0000  6.153530 5.329106 92.474949
253  2 0.0000  6.153541 1.776362 44.667718
254  2 0.0000  7.691913 2.664539 92.474949
255  2 0.0000  7.691939 4.440929 44.667718
256  2 0.0000  9.230311 5.329106 92.474949
257  2 0.0000  1.538429 0.888210  4.400558
258  2 0.0000  3.076801 1.776386 52.207788
259  2 0.0000  3.076827 3.552776  4.400558
260  2 0.0000  4.615199 4.440953 52.207788
261  2 0.0000  4.615210 0.888210  4.400558
262  2 0.0000  6.153582 1.776386 52.207788
263  2 0.0000  6.153608 3.552776  4.400558
264  2 0.0000  7.691981 4.440953 52.207788
265  2 0.0000  1.538366 0.888173  9.438310
266  2 0.0000  3.076738 1.776350 57.245540
267  2 0.0000  3.076764 3.552740  9.438310
268  2 0.0000  4.615136 4.440916 57.245540
269  2 0.0000  4.615147 0.888173  9.438310
270  2 0.0000  6.153519 1.776350 57.245540
271  2 0.0000  6.153545 3.552740  9.438310
272  2 0.0000  7.691917 4.440916 57.245540
273  2 0.0000  1.538376 0.888179 19.497296
274  2 0.0000  3.076749 1.776356 67.304526
275  2 0.0000  3.076775 3.552746 19.497296
276  2 0.0000  4.615147 4.440922 67.304526
277  2 0.0000  4.615158 0.888179 19.497296
278  2 0.0000  6.153530 1.776356 67.304526
279  2 0.0000  6.153556 3.552746 19.497296
280  2 0.0000  7.691928 4.440922 67.304526
281  2 0.0000  1.538391 0.888187 24.532657
282  2 0.0000  3.076763 1.776364 72.339887
283  2 0.0000  3.076789 3.552754 24.532657
284  2 0.0000  4.615161 4.440931 72.339887
285  2 0.0000  4.615172 0.888187 24.532657
286  2 0.0000  6.153544 1.776364 72.339887
287  2 0.0000  6.153570 3.552754 24.532657
288  2 0.0000  7.691942 4.440931 72.339887
289  2 0.0000  1.538389 0.888186 34.594153
290  2 0.0000  3.076761 1.776363 82.401383
291  2 0.0000  3.076787 3.552753 34.594153
292  2 0.0000  4.615159 4.440929 82.401383
293  2 0.0000  4.615170 0.888186 34.594153
294  2 0.0000  6.153542 1.776363 82.401383
295  2 0.0000  6.153568 3.552753 34.594153
296  2 0.0000  7.691940 4.440929 82.401383
297  2 0.0000  1.538305 0.888138 39.628764
298  2 0.0000  3.076677 1.776314 87.435994
299  2 0.0000  3.076703 3.552704 39.628764
300  2 0.0000  4.615075 4.440881 87.435994
301  2 0.0000  4.615086 0.888138 39.628764
302  2 0.0000  6.153458 1.776314 87.435994
303  2 0.0000  6.153484 3.552704 39.628764
304  2 0.0000  7.691856 4.440881 87.435994

