Generated by pymatgen.io.lammps.data.LammpsData

1125  atoms

   2  atom types

0.000000 24.574830  xlo xhi
0.000000 21.282430  ylo yhi
0.000000 27.156506  zlo zhi
-12.287413 0.000000 0.000000  xy xz yz

Masses

1  28.0855
2  15.9994

Atoms

1     1 0.0000   1.305141  2.260571 -0.000000
2     1 0.0000   1.305141  2.260571  5.431301
3     1 0.0000   1.305141  2.260571 10.862602
4     1 0.0000   1.305141  2.260571 16.293903
5     1 0.0000   1.305141  2.260571 21.725205
6     1 0.0000  -1.152341  6.517057 -0.000000
7     1 0.0000  -1.152341  6.517057  5.431301
8     1 0.0000  -1.152341  6.517057 10.862602
9     1 0.0000  -1.152341  6.517057 16.293903
10    1 0.0000  -1.152341  6.517057 21.725205
11    1 0.0000  -3.609824 10.773543 -0.000000
12    1 0.0000  -3.609824 10.773543  5.431301
13    1 0.0000  -3.609824 10.773543 10.862602
14    1 0.0000  -3.609824 10.773543 16.293903
15    1 0.0000  -3.609824 10.773543 21.725205
16    1 0.0000  -6.067306 15.030029 -0.000000
17    1 0.0000  -6.067306 15.030029  5.431301
18    1 0.0000  -6.067306 15.030029 10.862602
19    1 0.0000  -6.067306 15.030029 16.293903
20    1 0.0000  -6.067306 15.030029 21.725205
21    1 0.0000  -8.524789 19.286516 -0.000000
22    1 0.0000  -8.524789 19.286516  5.431301
23    1 0.0000  -8.524789 19.286516 10.862602
24    1 0.0000  -8.524789 19.286516 16.293903
25    1 0.0000  -8.524789 19.286516 21.725205
26    1 0.0000   6.220107  2.260571  0.000000
27    1 0.0000   6.220107  2.260571  5.431301
28    1 0.0000   6.220107  2.260571 10.862602
29    1 0.0000   6.220107  2.260571 16.293903
30    1 0.0000   6.220107  2.260571 21.725205
31    1 0.0000   3.762625  6.517057  0.000000
32    1 0.0000   3.762625  6.517057  5.431301
33    1 0.0000   3.762625  6.517057 10.862602
34    1 0.0000   3.762625  6.517057 16.293903
35    1 0.0000   3.762625  6.517057 21.725205
36    1 0.0000   1.305142 10.773543  0.000000
37    1 0.0000   1.305142 10.773543  5.431301
38    1 0.0000   1.305142 10.773543 10.862602
39    1 0.0000   1.305142 10.773543 16.293903
40    1 0.0000   1.305142 10.773543 21.725205
41    1 0.0000  -1.152340 15.030029 -0.000000
42    1 0.0000  -1.152340 15.030029  5.431301
43    1 0.0000  -1.152340 15.030029 10.862602
44    1 0.0000  -1.152340 15.030029 16.293903
45    1 0.0000  -1.152340 15.030029 21.725205
46    1 0.0000  -3.609823 19.286516 -0.000000
47    1 0.0000  -3.609823 19.286516  5.431301
48    1 0.0000  -3.609823 19.286516 10.862602
49    1 0.0000  -3.609823 19.286516 16.293903
50    1 0.0000  -3.609823 19.286516 21.725205
51    1 0.0000  11.135073  2.260571  0.000000
52    1 0.0000  11.135073  2.260571  5.431301
53    1 0.0000  11.135073  2.260571 10.862602
54    1 0.0000  11.135073  2.260571 16.293903
55    1 0.0000  11.135073  2.260571 21.725205
56    1 0.0000   8.677591  6.517057  0.000000
57    1 0.0000   8.677591  6.517057  5.431301
58    1 0.0000   8.677591  6.517057 10.862602
59    1 0.0000   8.677591  6.517057 16.293903
60    1 0.0000   8.677591  6.517057 21.725205
61    1 0.0000   6.220108 10.773543  0.000000
62    1 0.0000   6.220108 10.773543  5.431301
63    1 0.0000   6.220108 10.773543 10.862602
64    1 0.0000   6.220108 10.773543 16.293903
65    1 0.0000   6.220108 10.773543 21.725205
66    1 0.0000   3.762626 15.030029 -0.000000
67    1 0.0000   3.762626 15.030029  5.431301
68    1 0.0000   3.762626 15.030029 10.862602
69    1 0.0000   3.762626 15.030029 16.293903
70    1 0.0000   3.762626 15.030029 21.725205
71    1 0.0000   1.305143 19.286516  0.000000
72    1 0.0000   1.305143 19.286516  5.431301
73    1 0.0000   1.305143 19.286516 10.862602
74    1 0.0000   1.305143 19.286516 16.293903
75    1 0.0000   1.305143 19.286516 21.725205
76    1 0.0000  16.050039  2.260571 -0.000000
77    1 0.0000  16.050039  2.260571  5.431301
78    1 0.0000  16.050039  2.260571 10.862602
79    1 0.0000  16.050039  2.260571 16.293903
80    1 0.0000  16.050039  2.260571 21.725205
81    1 0.0000  13.592557  6.517057  0.000000
82    1 0.0000  13.592557  6.517057  5.431301
83    1 0.0000  13.592557  6.517057 10.862602
84    1 0.0000  13.592557  6.517057 16.293903
85    1 0.0000  13.592557  6.517057 21.725205
86    1 0.0000  11.135074 10.773543  0.000000
87    1 0.0000  11.135074 10.773543  5.431301
88    1 0.0000  11.135074 10.773543 10.862602
89    1 0.0000  11.135074 10.773543 16.293903
90    1 0.0000  11.135074 10.773543 21.725205
91    1 0.0000   8.677592 15.030029 -0.000000
92    1 0.0000   8.677592 15.030029  5.431301
93    1 0.0000   8.677592 15.030029 10.862602
94    1 0.0000   8.677592 15.030029 16.293903
95    1 0.0000   8.677592 15.030029 21.725205
96    1 0.0000   6.220109 19.286516  0.000000
97    1 0.0000   6.220109 19.286516  5.431301
98    1 0.0000   6.220109 19.286516 10.862602
99    1 0.0000   6.220109 19.286516 16.293903
100   1 0.0000   6.220109 19.286516 21.725205
101   1 0.0000  20.965005  2.260571  0.000000
102   1 0.0000  20.965005  2.260571  5.431301
103   1 0.0000  20.965005  2.260571 10.862602
104   1 0.0000  20.965005  2.260571 16.293903
105   1 0.0000  20.965005  2.260571 21.725205
106   1 0.0000  18.507523  6.517057  0.000000
107   1 0.0000  18.507523  6.517057  5.431301
108   1 0.0000  18.507523  6.517057 10.862602
109   1 0.0000  18.507523  6.517057 16.293903
110   1 0.0000  18.507523  6.517057 21.725205
111   1 0.0000  16.050040 10.773543  0.000000
112   1 0.0000  16.050040 10.773543  5.431301
113   1 0.0000  16.050040 10.773543 10.862602
114   1 0.0000  16.050040 10.773543 16.293903
115   1 0.0000  16.050040 10.773543 21.725205
116   1 0.0000  13.592558 15.030029  0.000000
117   1 0.0000  13.592558 15.030029  5.431301
118   1 0.0000  13.592558 15.030029 10.862602
119   1 0.0000  13.592558 15.030029 16.293903
120   1 0.0000  13.592558 15.030029 21.725205
121   1 0.0000  11.135075 19.286516  0.000000
122   1 0.0000  11.135075 19.286516  5.431301
123   1 0.0000  11.135075 19.286516 10.862602
124   1 0.0000  11.135075 19.286516 16.293903
125   1 0.0000  11.135075 19.286516 21.725205
126   1 0.0000  -1.152342  1.995915  3.620867
127   1 0.0000  -1.152342  1.995915  9.052169
128   1 0.0000  -1.152342  1.995915 14.483470
129   1 0.0000  -1.152342  1.995915 19.914771
130   1 0.0000  -1.152342  1.995915 25.346072
131   1 0.0000  -3.609824  6.252401  3.620867
132   1 0.0000  -3.609824  6.252401  9.052169
133   1 0.0000  -3.609824  6.252401 14.483470
134   1 0.0000  -3.609824  6.252401 19.914771
135   1 0.0000  -3.609824  6.252401 25.346072
136   1 0.0000  -6.067307 10.508887  3.620867
137   1 0.0000  -6.067307 10.508887  9.052169
138   1 0.0000  -6.067307 10.508887 14.483470
139   1 0.0000  -6.067307 10.508887 19.914771
140   1 0.0000  -6.067307 10.508887 25.346072
141   1 0.0000  -8.524789 14.765373  3.620867
142   1 0.0000  -8.524789 14.765373  9.052169
143   1 0.0000  -8.524789 14.765373 14.483470
144   1 0.0000  -8.524789 14.765373 19.914771
145   1 0.0000  -8.524789 14.765373 25.346072
146   1 0.0000 -10.982272 19.021859  3.620867
147   1 0.0000 -10.982272 19.021859  9.052169
148   1 0.0000 -10.982272 19.021859 14.483470
149   1 0.0000 -10.982272 19.021859 19.914771
150   1 0.0000 -10.982272 19.021859 25.346072
151   1 0.0000   3.762624  1.995915  3.620867
152   1 0.0000   3.762624  1.995915  9.052169
153   1 0.0000   3.762624  1.995915 14.483470
154   1 0.0000   3.762624  1.995915 19.914771
155   1 0.0000   3.762624  1.995915 25.346072
156   1 0.0000   1.305142  6.252401  3.620867
157   1 0.0000   1.305142  6.252401  9.052169
158   1 0.0000   1.305142  6.252401 14.483470
159   1 0.0000   1.305142  6.252401 19.914771
160   1 0.0000   1.305142  6.252401 25.346072
161   1 0.0000  -1.152341 10.508887  3.620867
162   1 0.0000  -1.152341 10.508887  9.052169
163   1 0.0000  -1.152341 10.508887 14.483470
164   1 0.0000  -1.152341 10.508887 19.914771
165   1 0.0000  -1.152341 10.508887 25.346072
166   1 0.0000  -3.609823 14.765373  3.620867
167   1 0.0000  -3.609823 14.765373  9.052169
168   1 0.0000  -3.609823 14.765373 14.483470
169   1 0.0000  -3.609823 14.765373 19.914771
170   1 0.0000  -3.609823 14.765373 25.346072
171   1 0.0000  -6.067306 19.021859  3.620867
172   1 0.0000  -6.067306 19.021859  9.052169
173   1 0.0000  -6.067306 19.021859 14.483470
174   1 0.0000  -6.067306 19.021859 19.914771
175   1 0.0000  -6.067306 19.021859 25.346072
176   1 0.0000   8.677590  1.995915  3.620867
177   1 0.0000   8.677590  1.995915  9.052169
178   1 0.0000   8.677590  1.995915 14.483470
179   1 0.0000   8.677590  1.995915 19.914771
180   1 0.0000   8.677590  1.995915 25.346072
181   1 0.0000   6.220108  6.252401  3.620867
182   1 0.0000   6.220108  6.252401  9.052169
183   1 0.0000   6.220108  6.252401 14.483470
184   1 0.0000   6.220108  6.252401 19.914771
185   1 0.0000   6.220108  6.252401 25.346072
186   1 0.0000   3.762625 10.508887  3.620867
187   1 0.0000   3.762625 10.508887  9.052169
188   1 0.0000   3.762625 10.508887 14.483470
189   1 0.0000   3.762625 10.508887 19.914771
190   1 0.0000   3.762625 10.508887 25.346072
191   1 0.0000   1.305143 14.765373  3.620867
192   1 0.0000   1.305143 14.765373  9.052169
193   1 0.0000   1.305143 14.765373 14.483470
194   1 0.0000   1.305143 14.765373 19.914771
195   1 0.0000   1.305143 14.765373 25.346072
196   1 0.0000  -1.152340 19.021859  3.620867
197   1 0.0000  -1.152340 19.021859  9.052169
198   1 0.0000  -1.152340 19.021859 14.483470
199   1 0.0000  -1.152340 19.021859 19.914771
200   1 0.0000  -1.152340 19.021859 25.346072
201   1 0.0000  13.592556  1.995915  3.620867
202   1 0.0000  13.592556  1.995915  9.052169
203   1 0.0000  13.592556  1.995915 14.483470
204   1 0.0000  13.592556  1.995915 19.914771
205   1 0.0000  13.592556  1.995915 25.346072
206   1 0.0000  11.135074  6.252401  3.620867
207   1 0.0000  11.135074  6.252401  9.052169
208   1 0.0000  11.135074  6.252401 14.483470
209   1 0.0000  11.135074  6.252401 19.914771
210   1 0.0000  11.135074  6.252401 25.346072
211   1 0.0000   8.677591 10.508887  3.620867
212   1 0.0000   8.677591 10.508887  9.052169
213   1 0.0000   8.677591 10.508887 14.483470
214   1 0.0000   8.677591 10.508887 19.914771
215   1 0.0000   8.677591 10.508887 25.346072
216   1 0.0000   6.220109 14.765373  3.620867
217   1 0.0000   6.220109 14.765373  9.052169
218   1 0.0000   6.220109 14.765373 14.483470
219   1 0.0000   6.220109 14.765373 19.914771
220   1 0.0000   6.220109 14.765373 25.346072
221   1 0.0000   3.762626 19.021859  3.620867
222   1 0.0000   3.762626 19.021859  9.052169
223   1 0.0000   3.762626 19.021859 14.483470
224   1 0.0000   3.762626 19.021859 19.914771
225   1 0.0000   3.762626 19.021859 25.346072
226   1 0.0000  18.507522  1.995915  3.620867
227   1 0.0000  18.507522  1.995915  9.052169
228   1 0.0000  18.507522  1.995915 14.483470
229   1 0.0000  18.507522  1.995915 19.914771
230   1 0.0000  18.507522  1.995915 25.346072
231   1 0.0000  16.050040  6.252401  3.620867
232   1 0.0000  16.050040  6.252401  9.052169
233   1 0.0000  16.050040  6.252401 14.483470
234   1 0.0000  16.050040  6.252401 19.914771
235   1 0.0000  16.050040  6.252401 25.346072
236   1 0.0000  13.592557 10.508887  3.620867
237   1 0.0000  13.592557 10.508887  9.052169
238   1 0.0000  13.592557 10.508887 14.483470
239   1 0.0000  13.592557 10.508887 19.914771
240   1 0.0000  13.592557 10.508887 25.346072
241   1 0.0000  11.135075 14.765373  3.620867
242   1 0.0000  11.135075 14.765373  9.052169
243   1 0.0000  11.135075 14.765373 14.483470
244   1 0.0000  11.135075 14.765373 19.914771
245   1 0.0000  11.135075 14.765373 25.346072
246   1 0.0000   8.677592 19.021859  3.620867
247   1 0.0000   8.677592 19.021859  9.052169
248   1 0.0000   8.677592 19.021859 14.483470
249   1 0.0000   8.677592 19.021859 19.914771
250   1 0.0000   8.677592 19.021859 25.346072
251   1 0.0000   2.304684  0.000000  1.810434
252   1 0.0000   2.304684  0.000000  7.241735
253   1 0.0000   2.304684  0.000000 12.673036
254   1 0.0000   2.304684  0.000000 18.104337
255   1 0.0000   2.304684  0.000000 23.535638
256   1 0.0000  -0.152799  4.256486  1.810434
257   1 0.0000  -0.152799  4.256486  7.241735
258   1 0.0000  -0.152799  4.256486 12.673036
259   1 0.0000  -0.152799  4.256486 18.104337
260   1 0.0000  -0.152799  4.256486 23.535638
261   1 0.0000  -2.610281  8.512972  1.810434
262   1 0.0000  -2.610281  8.512972  7.241735
263   1 0.0000  -2.610281  8.512972 12.673036
264   1 0.0000  -2.610281  8.512972 18.104337
265   1 0.0000  -2.610281  8.512972 23.535638
266   1 0.0000  -5.067764 12.769458  1.810434
267   1 0.0000  -5.067764 12.769458  7.241735
268   1 0.0000  -5.067764 12.769458 12.673036
269   1 0.0000  -5.067764 12.769458 18.104337
270   1 0.0000  -5.067764 12.769458 23.535638
271   1 0.0000  -7.525246 17.025944  1.810434
272   1 0.0000  -7.525246 17.025944  7.241735
273   1 0.0000  -7.525246 17.025944 12.673036
274   1 0.0000  -7.525246 17.025944 18.104337
275   1 0.0000  -7.525246 17.025944 23.535638
276   1 0.0000   7.219650  0.000000  1.810434
277   1 0.0000   7.219650  0.000000  7.241735
278   1 0.0000   7.219650  0.000000 12.673036
279   1 0.0000   7.219650  0.000000 18.104337
280   1 0.0000   7.219650  0.000000 23.535638
281   1 0.0000   4.762167  4.256486  1.810434
282   1 0.0000   4.762167  4.256486  7.241735
283   1 0.0000   4.762167  4.256486 12.673036
284   1 0.0000   4.762167  4.256486 18.104337
285   1 0.0000   4.762167  4.256486 23.535638
286   1 0.0000   2.304685  8.512972  1.810434
287   1 0.0000   2.304685  8.512972  7.241735
288   1 0.0000   2.304685  8.512972 12.673036
289   1 0.0000   2.304685  8.512972 18.104337
290   1 0.0000   2.304685  8.512972 23.535638
291   1 0.0000  -0.152798 12.769458  1.810434
292   1 0.0000  -0.152798 12.769458  7.241735
293   1 0.0000  -0.152798 12.769458 12.673036
294   1 0.0000  -0.152798 12.769458 18.104337
295   1 0.0000  -0.152798 12.769458 23.535638
296   1 0.0000  -2.610280 17.025944  1.810434
297   1 0.0000  -2.610280 17.025944  7.241735
298   1 0.0000  -2.610280 17.025944 12.673036
299   1 0.0000  -2.610280 17.025944 18.104337
300   1 0.0000  -2.610280 17.025944 23.535638
301   1 0.0000  12.134616  0.000000  1.810434
302   1 0.0000  12.134616  0.000000  7.241735
303   1 0.0000  12.134616  0.000000 12.673036
304   1 0.0000  12.134616  0.000000 18.104337
305   1 0.0000  12.134616  0.000000 23.535638
306   1 0.0000   9.677133  4.256486  1.810434
307   1 0.0000   9.677133  4.256486  7.241735
308   1 0.0000   9.677133  4.256486 12.673036
309   1 0.0000   9.677133  4.256486 18.104337
310   1 0.0000   9.677133  4.256486 23.535638
311   1 0.0000   7.219651  8.512972  1.810434
312   1 0.0000   7.219651  8.512972  7.241735
313   1 0.0000   7.219651  8.512972 12.673036
314   1 0.0000   7.219651  8.512972 18.104337
315   1 0.0000   7.219651  8.512972 23.535638
316   1 0.0000   4.762168 12.769458  1.810434
317   1 0.0000   4.762168 12.769458  7.241735
318   1 0.0000   4.762168 12.769458 12.673036
319   1 0.0000   4.762168 12.769458 18.104337
320   1 0.0000   4.762168 12.769458 23.535638
321   1 0.0000   2.304686 17.025944  1.810434
322   1 0.0000   2.304686 17.025944  7.241735
323   1 0.0000   2.304686 17.025944 12.673036
324   1 0.0000   2.304686 17.025944 18.104337
325   1 0.0000   2.304686 17.025944 23.535638
326   1 0.0000  17.049582  0.000000  1.810434
327   1 0.0000  17.049582  0.000000  7.241735
328   1 0.0000  17.049582  0.000000 12.673036
329   1 0.0000  17.049582  0.000000 18.104337
330   1 0.0000  17.049582  0.000000 23.535638
331   1 0.0000  14.592099  4.256486  1.810434
332   1 0.0000  14.592099  4.256486  7.241735
333   1 0.0000  14.592099  4.256486 12.673036
334   1 0.0000  14.592099  4.256486 18.104337
335   1 0.0000  14.592099  4.256486 23.535638
336   1 0.0000  12.134617  8.512972  1.810434
337   1 0.0000  12.134617  8.512972  7.241735
338   1 0.0000  12.134617  8.512972 12.673036
339   1 0.0000  12.134617  8.512972 18.104337
340   1 0.0000  12.134617  8.512972 23.535638
341   1 0.0000   9.677134 12.769458  1.810434
342   1 0.0000   9.677134 12.769458  7.241735
343   1 0.0000   9.677134 12.769458 12.673036
344   1 0.0000   9.677134 12.769458 18.104337
345   1 0.0000   9.677134 12.769458 23.535638
346   1 0.0000   7.219652 17.025944  1.810434
347   1 0.0000   7.219652 17.025944  7.241735
348   1 0.0000   7.219652 17.025944 12.673036
349   1 0.0000   7.219652 17.025944 18.104337
350   1 0.0000   7.219652 17.025944 23.535638
351   1 0.0000  21.964548  0.000000  1.810434
352   1 0.0000  21.964548  0.000000  7.241735
353   1 0.0000  21.964548  0.000000 12.673036
354   1 0.0000  21.964548  0.000000 18.104337
355   1 0.0000  21.964548  0.000000 23.535638
356   1 0.0000  19.507065  4.256486  1.810434
357   1 0.0000  19.507065  4.256486  7.241735
358   1 0.0000  19.507065  4.256486 12.673036
359   1 0.0000  19.507065  4.256486 18.104337
360   1 0.0000  19.507065  4.256486 23.535638
361   1 0.0000  17.049583  8.512972  1.810434
362   1 0.0000  17.049583  8.512972  7.241735
363   1 0.0000  17.049583  8.512972 12.673036
364   1 0.0000  17.049583  8.512972 18.104337
365   1 0.0000  17.049583  8.512972 23.535638
366   1 0.0000  14.592100 12.769458  1.810434
367   1 0.0000  14.592100 12.769458  7.241735
368   1 0.0000  14.592100 12.769458 12.673036
369   1 0.0000  14.592100 12.769458 18.104337
370   1 0.0000  14.592100 12.769458 23.535638
371   1 0.0000  12.134618 17.025944  1.810434
372   1 0.0000  12.134618 17.025944  7.241735
373   1 0.0000  12.134618 17.025944 12.673036
374   1 0.0000  12.134618 17.025944 18.104337
375   1 0.0000  12.134618 17.025944 23.535638
376   2 0.0000   0.307313  1.759607  4.262979
377   2 0.0000   0.307313  1.759607  9.694280
378   2 0.0000   0.307313  1.759607 15.125582
379   2 0.0000   0.307313  1.759607 20.556883
380   2 0.0000   0.307313  1.759607 25.988184
381   2 0.0000  -2.150169  6.016093  4.262979
382   2 0.0000  -2.150169  6.016093  9.694280
383   2 0.0000  -2.150169  6.016093 15.125582
384   2 0.0000  -2.150169  6.016093 20.556883
385   2 0.0000  -2.150169  6.016093 25.988184
386   2 0.0000  -4.607652 10.272579  4.262979
387   2 0.0000  -4.607652 10.272579  9.694280
388   2 0.0000  -4.607652 10.272579 15.125582
389   2 0.0000  -4.607652 10.272579 20.556883
390   2 0.0000  -4.607652 10.272579 25.988184
391   2 0.0000  -7.065134 14.529065  4.262979
392   2 0.0000  -7.065134 14.529065  9.694280
393   2 0.0000  -7.065134 14.529065 15.125582
394   2 0.0000  -7.065134 14.529065 20.556883
395   2 0.0000  -7.065134 14.529065 25.988184
396   2 0.0000  -9.522617 18.785551  4.262979
397   2 0.0000  -9.522617 18.785551  9.694280
398   2 0.0000  -9.522617 18.785551 15.125582
399   2 0.0000  -9.522617 18.785551 20.556883
400   2 0.0000  -9.522617 18.785551 25.988184
401   2 0.0000   5.222279  1.759607  4.262979
402   2 0.0000   5.222279  1.759607  9.694280
403   2 0.0000   5.222279  1.759607 15.125582
404   2 0.0000   5.222279  1.759607 20.556883
405   2 0.0000   5.222279  1.759607 25.988184
406   2 0.0000   2.764797  6.016093  4.262979
407   2 0.0000   2.764797  6.016093  9.694280
408   2 0.0000   2.764797  6.016093 15.125582
409   2 0.0000   2.764797  6.016093 20.556883
410   2 0.0000   2.764797  6.016093 25.988184
411   2 0.0000   0.307314 10.272579  4.262979
412   2 0.0000   0.307314 10.272579  9.694280
413   2 0.0000   0.307314 10.272579 15.125582
414   2 0.0000   0.307314 10.272579 20.556883
415   2 0.0000   0.307314 10.272579 25.988184
416   2 0.0000  -2.150168 14.529065  4.262979
417   2 0.0000  -2.150168 14.529065  9.694280
418   2 0.0000  -2.150168 14.529065 15.125582
419   2 0.0000  -2.150168 14.529065 20.556883
420   2 0.0000  -2.150168 14.529065 25.988184
421   2 0.0000  -4.607651 18.785551  4.262979
422   2 0.0000  -4.607651 18.785551  9.694280
423   2 0.0000  -4.607651 18.785551 15.125582
424   2 0.0000  -4.607651 18.785551 20.556883
425   2 0.0000  -4.607651 18.785551 25.988184
426   2 0.0000  10.137245  1.759607  4.262979
427   2 0.0000  10.137245  1.759607  9.694280
428   2 0.0000  10.137245  1.759607 15.125582
429   2 0.0000  10.137245  1.759607 20.556883
430   2 0.0000  10.137245  1.759607 25.988184
431   2 0.0000   7.679763  6.016093  4.262979
432   2 0.0000   7.679763  6.016093  9.694280
433   2 0.0000   7.679763  6.016093 15.125582
434   2 0.0000   7.679763  6.016093 20.556883
435   2 0.0000   7.679763  6.016093 25.988184
436   2 0.0000   5.222280 10.272579  4.262979
437   2 0.0000   5.222280 10.272579  9.694280
438   2 0.0000   5.222280 10.272579 15.125582
439   2 0.0000   5.222280 10.272579 20.556883
440   2 0.0000   5.222280 10.272579 25.988184
441   2 0.0000   2.764798 14.529065  4.262979
442   2 0.0000   2.764798 14.529065  9.694280
443   2 0.0000   2.764798 14.529065 15.125582
444   2 0.0000   2.764798 14.529065 20.556883
445   2 0.0000   2.764798 14.529065 25.988184
446   2 0.0000   0.307315 18.785551  4.262979
447   2 0.0000   0.307315 18.785551  9.694280
448   2 0.0000   0.307315 18.785551 15.125582
449   2 0.0000   0.307315 18.785551 20.556883
450   2 0.0000   0.307315 18.785551 25.988184
451   2 0.0000  15.052211  1.759607  4.262979
452   2 0.0000  15.052211  1.759607  9.694280
453   2 0.0000  15.052211  1.759607 15.125582
454   2 0.0000  15.052211  1.759607 20.556883
455   2 0.0000  15.052211  1.759607 25.988184
456   2 0.0000  12.594729  6.016093  4.262979
457   2 0.0000  12.594729  6.016093  9.694280
458   2 0.0000  12.594729  6.016093 15.125582
459   2 0.0000  12.594729  6.016093 20.556883
460   2 0.0000  12.594729  6.016093 25.988184
461   2 0.0000  10.137246 10.272579  4.262979
462   2 0.0000  10.137246 10.272579  9.694280
463   2 0.0000  10.137246 10.272579 15.125582
464   2 0.0000  10.137246 10.272579 20.556883
465   2 0.0000  10.137246 10.272579 25.988184
466   2 0.0000   7.679764 14.529065  4.262979
467   2 0.0000   7.679764 14.529065  9.694280
468   2 0.0000   7.679764 14.529065 15.125582
469   2 0.0000   7.679764 14.529065 20.556883
470   2 0.0000   7.679764 14.529065 25.988184
471   2 0.0000   5.222281 18.785551  4.262979
472   2 0.0000   5.222281 18.785551  9.694280
473   2 0.0000   5.222281 18.785551 15.125582
474   2 0.0000   5.222281 18.785551 20.556883
475   2 0.0000   5.222281 18.785551 25.988184
476   2 0.0000  19.967177  1.759607  4.262979
477   2 0.0000  19.967177  1.759607  9.694280
478   2 0.0000  19.967177  1.759607 15.125582
479   2 0.0000  19.967177  1.759607 20.556883
480   2 0.0000  19.967177  1.759607 25.988184
481   2 0.0000  17.509695  6.016093  4.262979
482   2 0.0000  17.509695  6.016093  9.694280
483   2 0.0000  17.509695  6.016093 15.125582
484   2 0.0000  17.509695  6.016093 20.556883
485   2 0.0000  17.509695  6.016093 25.988184
486   2 0.0000  15.052212 10.272579  4.262979
487   2 0.0000  15.052212 10.272579  9.694280
488   2 0.0000  15.052212 10.272579 15.125582
489   2 0.0000  15.052212 10.272579 20.556883
490   2 0.0000  15.052212 10.272579 25.988184
491   2 0.0000  12.594730 14.529065  4.262979
492   2 0.0000  12.594730 14.529065  9.694280
493   2 0.0000  12.594730 14.529065 15.125582
494   2 0.0000  12.594730 14.529065 20.556883
495   2 0.0000  12.594730 14.529065 25.988184
496   2 0.0000  10.137247 18.785551  4.262979
497   2 0.0000  10.137247 18.785551  9.694280
498   2 0.0000  10.137247 18.785551 15.125582
499   2 0.0000  10.137247 18.785551 20.556883
500   2 0.0000  10.137247 18.785551 25.988184
501   2 0.0000   0.779965  3.642819  0.642115
502   2 0.0000   0.779965  3.642819  6.073417
503   2 0.0000   0.779965  3.642819 11.504718
504   2 0.0000   0.779965  3.642819 16.936019
505   2 0.0000   0.779965  3.642819 22.367320
506   2 0.0000  -1.677517  7.899305  0.642115
507   2 0.0000  -1.677517  7.899305  6.073417
508   2 0.0000  -1.677517  7.899305 11.504718
509   2 0.0000  -1.677517  7.899305 16.936019
510   2 0.0000  -1.677517  7.899305 22.367320
511   2 0.0000  -4.135000 12.155791  0.642115
512   2 0.0000  -4.135000 12.155791  6.073417
513   2 0.0000  -4.135000 12.155791 11.504718
514   2 0.0000  -4.135000 12.155791 16.936019
515   2 0.0000  -4.135000 12.155791 22.367320
516   2 0.0000  -6.592482 16.412277  0.642115
517   2 0.0000  -6.592482 16.412277  6.073417
518   2 0.0000  -6.592482 16.412277 11.504718
519   2 0.0000  -6.592482 16.412277 16.936019
520   2 0.0000  -6.592482 16.412277 22.367320
521   2 0.0000  -9.049965 20.668764  0.642115
522   2 0.0000  -9.049965 20.668764  6.073417
523   2 0.0000  -9.049965 20.668764 11.504718
524   2 0.0000  -9.049965 20.668764 16.936019
525   2 0.0000  -9.049965 20.668764 22.367320
526   2 0.0000   5.694931  3.642819  0.642115
527   2 0.0000   5.694931  3.642819  6.073417
528   2 0.0000   5.694931  3.642819 11.504718
529   2 0.0000   5.694931  3.642819 16.936019
530   2 0.0000   5.694931  3.642819 22.367320
531   2 0.0000   3.237449  7.899305  0.642115
532   2 0.0000   3.237449  7.899305  6.073417
533   2 0.0000   3.237449  7.899305 11.504718
534   2 0.0000   3.237449  7.899305 16.936019
535   2 0.0000   3.237449  7.899305 22.367320
536   2 0.0000   0.779966 12.155791  0.642115
537   2 0.0000   0.779966 12.155791  6.073417
538   2 0.0000   0.779966 12.155791 11.504718
539   2 0.0000   0.779966 12.155791 16.936019
540   2 0.0000   0.779966 12.155791 22.367320
541   2 0.0000  -1.677516 16.412277  0.642115
542   2 0.0000  -1.677516 16.412277  6.073417
543   2 0.0000  -1.677516 16.412277 11.504718
544   2 0.0000  -1.677516 16.412277 16.936019
545   2 0.0000  -1.677516 16.412277 22.367320
546   2 0.0000  -4.134999 20.668764  0.642115
547   2 0.0000  -4.134999 20.668764  6.073417
548   2 0.0000  -4.134999 20.668764 11.504718
549   2 0.0000  -4.134999 20.668764 16.936019
550   2 0.0000  -4.134999 20.668764 22.367320
551   2 0.0000  10.609897  3.642819  0.642115
552   2 0.0000  10.609897  3.642819  6.073417
553   2 0.0000  10.609897  3.642819 11.504718
554   2 0.0000  10.609897  3.642819 16.936019
555   2 0.0000  10.609897  3.642819 22.367320
556   2 0.0000   8.152415  7.899305  0.642115
557   2 0.0000   8.152415  7.899305  6.073417
558   2 0.0000   8.152415  7.899305 11.504718
559   2 0.0000   8.152415  7.899305 16.936019
560   2 0.0000   8.152415  7.899305 22.367320
561   2 0.0000   5.694932 12.155791  0.642115
562   2 0.0000   5.694932 12.155791  6.073417
563   2 0.0000   5.694932 12.155791 11.504718
564   2 0.0000   5.694932 12.155791 16.936019
565   2 0.0000   5.694932 12.155791 22.367320
566   2 0.0000   3.237450 16.412277  0.642115
567   2 0.0000   3.237450 16.412277  6.073417
568   2 0.0000   3.237450 16.412277 11.504718
569   2 0.0000   3.237450 16.412277 16.936019
570   2 0.0000   3.237450 16.412277 22.367320
571   2 0.0000   0.779967 20.668764  0.642115
572   2 0.0000   0.779967 20.668764  6.073417
573   2 0.0000   0.779967 20.668764 11.504718
574   2 0.0000   0.779967 20.668764 16.936019
575   2 0.0000   0.779967 20.668764 22.367320
576   2 0.0000  15.524863  3.642819  0.642115
577   2 0.0000  15.524863  3.642819  6.073417
578   2 0.0000  15.524863  3.642819 11.504718
579   2 0.0000  15.524863  3.642819 16.936019
580   2 0.0000  15.524863  3.642819 22.367320
581   2 0.0000  13.067381  7.899305  0.642115
582   2 0.0000  13.067381  7.899305  6.073417
583   2 0.0000  13.067381  7.899305 11.504718
584   2 0.0000  13.067381  7.899305 16.936019
585   2 0.0000  13.067381  7.899305 22.367320
586   2 0.0000  10.609898 12.155791  0.642115
587   2 0.0000  10.609898 12.155791  6.073417
588   2 0.0000  10.609898 12.155791 11.504718
589   2 0.0000  10.609898 12.155791 16.936019
590   2 0.0000  10.609898 12.155791 22.367320
591   2 0.0000   8.152416 16.412277  0.642115
592   2 0.0000   8.152416 16.412277  6.073417
593   2 0.0000   8.152416 16.412277 11.504718
594   2 0.0000   8.152416 16.412277 16.936019
595   2 0.0000   8.152416 16.412277 22.367320
596   2 0.0000   5.694933 20.668764  0.642115
597   2 0.0000   5.694933 20.668764  6.073417
598   2 0.0000   5.694933 20.668764 11.504718
599   2 0.0000   5.694933 20.668764 16.936019
600   2 0.0000   5.694933 20.668764 22.367320
601   2 0.0000  20.439829  3.642819  0.642115
602   2 0.0000  20.439829  3.642819  6.073417
603   2 0.0000  20.439829  3.642819 11.504718
604   2 0.0000  20.439829  3.642819 16.936019
605   2 0.0000  20.439829  3.642819 22.367320
606   2 0.0000  17.982347  7.899305  0.642115
607   2 0.0000  17.982347  7.899305  6.073417
608   2 0.0000  17.982347  7.899305 11.504718
609   2 0.0000  17.982347  7.899305 16.936019
610   2 0.0000  17.982347  7.899305 22.367320
611   2 0.0000  15.524864 12.155791  0.642115
612   2 0.0000  15.524864 12.155791  6.073417
613   2 0.0000  15.524864 12.155791 11.504718
614   2 0.0000  15.524864 12.155791 16.936019
615   2 0.0000  15.524864 12.155791 22.367320
616   2 0.0000  13.067382 16.412277  0.642115
617   2 0.0000  13.067382 16.412277  6.073417
618   2 0.0000  13.067382 16.412277 11.504718
619   2 0.0000  13.067382 16.412277 16.936019
620   2 0.0000  13.067382 16.412277 22.367320
621   2 0.0000  10.609899 20.668764  0.642115
622   2 0.0000  10.609899 20.668764  6.073417
623   2 0.0000  10.609899 20.668764 11.504718
624   2 0.0000  10.609899 20.668764 16.936019
625   2 0.0000  10.609899 20.668764 22.367320
626   2 0.0000  -1.087270  3.110542  2.452547
627   2 0.0000  -1.087270  3.110542  7.883849
628   2 0.0000  -1.087270  3.110542 13.315150
629   2 0.0000  -1.087270  3.110542 18.746451
630   2 0.0000  -1.087270  3.110542 24.177752
631   2 0.0000  -3.544753  7.367028  2.452547
632   2 0.0000  -3.544753  7.367028  7.883849
633   2 0.0000  -3.544753  7.367028 13.315150
634   2 0.0000  -3.544753  7.367028 18.746451
635   2 0.0000  -3.544753  7.367028 24.177752
636   2 0.0000  -6.002235 11.623514  2.452547
637   2 0.0000  -6.002235 11.623514  7.883849
638   2 0.0000  -6.002235 11.623514 13.315150
639   2 0.0000  -6.002235 11.623514 18.746451
640   2 0.0000  -6.002235 11.623514 24.177752
641   2 0.0000  -8.459718 15.880000  2.452547
642   2 0.0000  -8.459718 15.880000  7.883849
643   2 0.0000  -8.459718 15.880000 13.315150
644   2 0.0000  -8.459718 15.880000 18.746451
645   2 0.0000  -8.459718 15.880000 24.177752
646   2 0.0000 -10.917200 20.136486  2.452547
647   2 0.0000 -10.917200 20.136486  7.883849
648   2 0.0000 -10.917200 20.136486 13.315150
649   2 0.0000 -10.917200 20.136486 18.746451
650   2 0.0000 -10.917200 20.136486 24.177752
651   2 0.0000   3.827696  3.110542  2.452547
652   2 0.0000   3.827696  3.110542  7.883849
653   2 0.0000   3.827696  3.110542 13.315150
654   2 0.0000   3.827696  3.110542 18.746451
655   2 0.0000   3.827696  3.110542 24.177752
656   2 0.0000   1.370213  7.367028  2.452547
657   2 0.0000   1.370213  7.367028  7.883849
658   2 0.0000   1.370213  7.367028 13.315150
659   2 0.0000   1.370213  7.367028 18.746451
660   2 0.0000   1.370213  7.367028 24.177752
661   2 0.0000  -1.087269 11.623514  2.452547
662   2 0.0000  -1.087269 11.623514  7.883849
663   2 0.0000  -1.087269 11.623514 13.315150
664   2 0.0000  -1.087269 11.623514 18.746451
665   2 0.0000  -1.087269 11.623514 24.177752
666   2 0.0000  -3.544752 15.880000  2.452547
667   2 0.0000  -3.544752 15.880000  7.883849
668   2 0.0000  -3.544752 15.880000 13.315150
669   2 0.0000  -3.544752 15.880000 18.746451
670   2 0.0000  -3.544752 15.880000 24.177752
671   2 0.0000  -6.002234 20.136486  2.452547
672   2 0.0000  -6.002234 20.136486  7.883849
673   2 0.0000  -6.002234 20.136486 13.315150
674   2 0.0000  -6.002234 20.136486 18.746451
675   2 0.0000  -6.002234 20.136486 24.177752
676   2 0.0000   8.742662  3.110542  2.452547
677   2 0.0000   8.742662  3.110542  7.883849
678   2 0.0000   8.742662  3.110542 13.315150
679   2 0.0000   8.742662  3.110542 18.746451
680   2 0.0000   8.742662  3.110542 24.177752
681   2 0.0000   6.285179  7.367028  2.452547
682   2 0.0000   6.285179  7.367028  7.883849
683   2 0.0000   6.285179  7.367028 13.315150
684   2 0.0000   6.285179  7.367028 18.746451
685   2 0.0000   6.285179  7.367028 24.177752
686   2 0.0000   3.827697 11.623514  2.452547
687   2 0.0000   3.827697 11.623514  7.883849
688   2 0.0000   3.827697 11.623514 13.315150
689   2 0.0000   3.827697 11.623514 18.746451
690   2 0.0000   3.827697 11.623514 24.177752
691   2 0.0000   1.370214 15.880000  2.452547
692   2 0.0000   1.370214 15.880000  7.883849
693   2 0.0000   1.370214 15.880000 13.315150
694   2 0.0000   1.370214 15.880000 18.746451
695   2 0.0000   1.370214 15.880000 24.177752
696   2 0.0000  -1.087268 20.136486  2.452547
697   2 0.0000  -1.087268 20.136486  7.883849
698   2 0.0000  -1.087268 20.136486 13.315150
699   2 0.0000  -1.087268 20.136486 18.746451
700   2 0.0000  -1.087268 20.136486 24.177752
701   2 0.0000  13.657628  3.110542  2.452547
702   2 0.0000  13.657628  3.110542  7.883849
703   2 0.0000  13.657628  3.110542 13.315150
704   2 0.0000  13.657628  3.110542 18.746451
705   2 0.0000  13.657628  3.110542 24.177752
706   2 0.0000  11.200145  7.367028  2.452547
707   2 0.0000  11.200145  7.367028  7.883849
708   2 0.0000  11.200145  7.367028 13.315150
709   2 0.0000  11.200145  7.367028 18.746451
710   2 0.0000  11.200145  7.367028 24.177752
711   2 0.0000   8.742663 11.623514  2.452547
712   2 0.0000   8.742663 11.623514  7.883849
713   2 0.0000   8.742663 11.623514 13.315150
714   2 0.0000   8.742663 11.623514 18.746451
715   2 0.0000   8.742663 11.623514 24.177752
716   2 0.0000   6.285180 15.880000  2.452547
717   2 0.0000   6.285180 15.880000  7.883849
718   2 0.0000   6.285180 15.880000 13.315150
719   2 0.0000   6.285180 15.880000 18.746451
720   2 0.0000   6.285180 15.880000 24.177752
721   2 0.0000   3.827698 20.136486  2.452547
722   2 0.0000   3.827698 20.136486  7.883849
723   2 0.0000   3.827698 20.136486 13.315150
724   2 0.0000   3.827698 20.136486 18.746451
725   2 0.0000   3.827698 20.136486 24.177752
726   2 0.0000  18.572594  3.110542  2.452547
727   2 0.0000  18.572594  3.110542  7.883849
728   2 0.0000  18.572594  3.110542 13.315150
729   2 0.0000  18.572594  3.110542 18.746451
730   2 0.0000  18.572594  3.110542 24.177752
731   2 0.0000  16.115111  7.367028  2.452547
732   2 0.0000  16.115111  7.367028  7.883849
733   2 0.0000  16.115111  7.367028 13.315150
734   2 0.0000  16.115111  7.367028 18.746451
735   2 0.0000  16.115111  7.367028 24.177752
736   2 0.0000  13.657629 11.623514  2.452547
737   2 0.0000  13.657629 11.623514  7.883849
738   2 0.0000  13.657629 11.623514 13.315150
739   2 0.0000  13.657629 11.623514 18.746451
740   2 0.0000  13.657629 11.623514 24.177752
741   2 0.0000  11.200146 15.880000  2.452547
742   2 0.0000  11.200146 15.880000  7.883849
743   2 0.0000  11.200146 15.880000 13.315150
744   2 0.0000  11.200146 15.880000 18.746451
745   2 0.0000  11.200146 15.880000 24.177752
746   2 0.0000   8.742664 20.136486  2.452547
747   2 0.0000   8.742664 20.136486  7.883849
748   2 0.0000   8.742664 20.136486 13.315150
749   2 0.0000   8.742664 20.136486 18.746451
750   2 0.0000   8.742664 20.136486 24.177752
751   2 0.0000   1.370208  1.145944  1.168322
752   2 0.0000   1.370208  1.145944  6.599623
753   2 0.0000   1.370208  1.145944 12.030924
754   2 0.0000   1.370208  1.145944 17.462225
755   2 0.0000   1.370208  1.145944 22.893526
756   2 0.0000  -1.087275  5.402431  1.168322
757   2 0.0000  -1.087275  5.402431  6.599623
758   2 0.0000  -1.087275  5.402431 12.030924
759   2 0.0000  -1.087275  5.402431 17.462225
760   2 0.0000  -1.087275  5.402431 22.893526
761   2 0.0000  -3.544757  9.658917  1.168322
762   2 0.0000  -3.544757  9.658917  6.599623
763   2 0.0000  -3.544757  9.658917 12.030924
764   2 0.0000  -3.544757  9.658917 17.462225
765   2 0.0000  -3.544757  9.658917 22.893526
766   2 0.0000  -6.002240 13.915403  1.168322
767   2 0.0000  -6.002240 13.915403  6.599623
768   2 0.0000  -6.002240 13.915403 12.030924
769   2 0.0000  -6.002240 13.915403 17.462225
770   2 0.0000  -6.002240 13.915403 22.893526
771   2 0.0000  -8.459722 18.171889  1.168322
772   2 0.0000  -8.459722 18.171889  6.599623
773   2 0.0000  -8.459722 18.171889 12.030924
774   2 0.0000  -8.459722 18.171889 17.462225
775   2 0.0000  -8.459722 18.171889 22.893526
776   2 0.0000   6.285174  1.145944  1.168322
777   2 0.0000   6.285174  1.145944  6.599623
778   2 0.0000   6.285174  1.145944 12.030924
779   2 0.0000   6.285174  1.145944 17.462225
780   2 0.0000   6.285174  1.145944 22.893526
781   2 0.0000   3.827691  5.402431  1.168322
782   2 0.0000   3.827691  5.402431  6.599623
783   2 0.0000   3.827691  5.402431 12.030924
784   2 0.0000   3.827691  5.402431 17.462225
785   2 0.0000   3.827691  5.402431 22.893526
786   2 0.0000   1.370209  9.658917  1.168322
787   2 0.0000   1.370209  9.658917  6.599623
788   2 0.0000   1.370209  9.658917 12.030924
789   2 0.0000   1.370209  9.658917 17.462225
790   2 0.0000   1.370209  9.658917 22.893526
791   2 0.0000  -1.087274 13.915403  1.168322
792   2 0.0000  -1.087274 13.915403  6.599623
793   2 0.0000  -1.087274 13.915403 12.030924
794   2 0.0000  -1.087274 13.915403 17.462225
795   2 0.0000  -1.087274 13.915403 22.893526
796   2 0.0000  -3.544756 18.171889  1.168322
797   2 0.0000  -3.544756 18.171889  6.599623
798   2 0.0000  -3.544756 18.171889 12.030924
799   2 0.0000  -3.544756 18.171889 17.462225
800   2 0.0000  -3.544756 18.171889 22.893526
801   2 0.0000  11.200140  1.145944  1.168322
802   2 0.0000  11.200140  1.145944  6.599623
803   2 0.0000  11.200140  1.145944 12.030924
804   2 0.0000  11.200140  1.145944 17.462225
805   2 0.0000  11.200140  1.145944 22.893526
806   2 0.0000   8.742657  5.402431  1.168322
807   2 0.0000   8.742657  5.402431  6.599623
808   2 0.0000   8.742657  5.402431 12.030924
809   2 0.0000   8.742657  5.402431 17.462225
810   2 0.0000   8.742657  5.402431 22.893526
811   2 0.0000   6.285175  9.658917  1.168322
812   2 0.0000   6.285175  9.658917  6.599623
813   2 0.0000   6.285175  9.658917 12.030924
814   2 0.0000   6.285175  9.658917 17.462225
815   2 0.0000   6.285175  9.658917 22.893526
816   2 0.0000   3.827692 13.915403  1.168322
817   2 0.0000   3.827692 13.915403  6.599623
818   2 0.0000   3.827692 13.915403 12.030924
819   2 0.0000   3.827692 13.915403 17.462225
820   2 0.0000   3.827692 13.915403 22.893526
821   2 0.0000   1.370210 18.171889  1.168322
822   2 0.0000   1.370210 18.171889  6.599623
823   2 0.0000   1.370210 18.171889 12.030924
824   2 0.0000   1.370210 18.171889 17.462225
825   2 0.0000   1.370210 18.171889 22.893526
826   2 0.0000  16.115106  1.145944  1.168322
827   2 0.0000  16.115106  1.145944  6.599623
828   2 0.0000  16.115106  1.145944 12.030924
829   2 0.0000  16.115106  1.145944 17.462225
830   2 0.0000  16.115106  1.145944 22.893526
831   2 0.0000  13.657623  5.402431  1.168322
832   2 0.0000  13.657623  5.402431  6.599623
833   2 0.0000  13.657623  5.402431 12.030924
834   2 0.0000  13.657623  5.402431 17.462225
835   2 0.0000  13.657623  5.402431 22.893526
836   2 0.0000  11.200141  9.658917  1.168322
837   2 0.0000  11.200141  9.658917  6.599623
838   2 0.0000  11.200141  9.658917 12.030924
839   2 0.0000  11.200141  9.658917 17.462225
840   2 0.0000  11.200141  9.658917 22.893526
841   2 0.0000   8.742658 13.915403  1.168322
842   2 0.0000   8.742658 13.915403  6.599623
843   2 0.0000   8.742658 13.915403 12.030924
844   2 0.0000   8.742658 13.915403 17.462225
845   2 0.0000   8.742658 13.915403 22.893526
846   2 0.0000   6.285176 18.171889  1.168322
847   2 0.0000   6.285176 18.171889  6.599623
848   2 0.0000   6.285176 18.171889 12.030924
849   2 0.0000   6.285176 18.171889 17.462225
850   2 0.0000   6.285176 18.171889 22.893526
851   2 0.0000  21.030072  1.145944  1.168322
852   2 0.0000  21.030072  1.145944  6.599623
853   2 0.0000  21.030072  1.145944 12.030924
854   2 0.0000  21.030072  1.145944 17.462225
855   2 0.0000  21.030072  1.145944 22.893526
856   2 0.0000  18.572589  5.402431  1.168322
857   2 0.0000  18.572589  5.402431  6.599623
858   2 0.0000  18.572589  5.402431 12.030924
859   2 0.0000  18.572589  5.402431 17.462225
860   2 0.0000  18.572589  5.402431 22.893526
861   2 0.0000  16.115107  9.658917  1.168322
862   2 0.0000  16.115107  9.658917  6.599623
863   2 0.0000  16.115107  9.658917 12.030924
864   2 0.0000  16.115107  9.658917 17.462225
865   2 0.0000  16.115107  9.658917 22.893526
866   2 0.0000  13.657624 13.915403  1.168322
867   2 0.0000  13.657624 13.915403  6.599623
868   2 0.0000  13.657624 13.915403 12.030924
869   2 0.0000  13.657624 13.915403 17.462225
870   2 0.0000  13.657624 13.915403 22.893526
871   2 0.0000  11.200142 18.171889  1.168322
872   2 0.0000  11.200142 18.171889  6.599623
873   2 0.0000  11.200142 18.171889 12.030924
874   2 0.0000  11.200142 18.171889 17.462225
875   2 0.0000  11.200142 18.171889 22.893526
876   2 0.0000   3.237443  0.613667  2.978754
877   2 0.0000   3.237443  0.613667  8.410055
878   2 0.0000   3.237443  0.613667 13.841356
879   2 0.0000   3.237443  0.613667 19.272657
880   2 0.0000   3.237443  0.613667 24.703958
881   2 0.0000   0.779960  4.870153  2.978754
882   2 0.0000   0.779960  4.870153  8.410055
883   2 0.0000   0.779960  4.870153 13.841356
884   2 0.0000   0.779960  4.870153 19.272657
885   2 0.0000   0.779960  4.870153 24.703958
886   2 0.0000  -1.677522  9.126639  2.978754
887   2 0.0000  -1.677522  9.126639  8.410055
888   2 0.0000  -1.677522  9.126639 13.841356
889   2 0.0000  -1.677522  9.126639 19.272657
890   2 0.0000  -1.677522  9.126639 24.703958
891   2 0.0000  -4.135005 13.383125  2.978754
892   2 0.0000  -4.135005 13.383125  8.410055
893   2 0.0000  -4.135005 13.383125 13.841356
894   2 0.0000  -4.135005 13.383125 19.272657
895   2 0.0000  -4.135005 13.383125 24.703958
896   2 0.0000  -6.592487 17.639611  2.978754
897   2 0.0000  -6.592487 17.639611  8.410055
898   2 0.0000  -6.592487 17.639611 13.841356
899   2 0.0000  -6.592487 17.639611 19.272657
900   2 0.0000  -6.592487 17.639611 24.703958
901   2 0.0000   8.152409  0.613667  2.978754
902   2 0.0000   8.152409  0.613667  8.410055
903   2 0.0000   8.152409  0.613667 13.841356
904   2 0.0000   8.152409  0.613667 19.272657
905   2 0.0000   8.152409  0.613667 24.703958
906   2 0.0000   5.694926  4.870153  2.978754
907   2 0.0000   5.694926  4.870153  8.410055
908   2 0.0000   5.694926  4.870153 13.841356
909   2 0.0000   5.694926  4.870153 19.272657
910   2 0.0000   5.694926  4.870153 24.703958
911   2 0.0000   3.237444  9.126639  2.978754
912   2 0.0000   3.237444  9.126639  8.410055
913   2 0.0000   3.237444  9.126639 13.841356
914   2 0.0000   3.237444  9.126639 19.272657
915   2 0.0000   3.237444  9.126639 24.703958
916   2 0.0000   0.779961 13.383125  2.978754
917   2 0.0000   0.779961 13.383125  8.410055
918   2 0.0000   0.779961 13.383125 13.841356
919   2 0.0000   0.779961 13.383125 19.272657
920   2 0.0000   0.779961 13.383125 24.703958
921   2 0.0000  -1.677521 17.639611  2.978754
922   2 0.0000  -1.677521 17.639611  8.410055
923   2 0.0000  -1.677521 17.639611 13.841356
924   2 0.0000  -1.677521 17.639611 19.272657
925   2 0.0000  -1.677521 17.639611 24.703958
926   2 0.0000  13.067375  0.613667  2.978754
927   2 0.0000  13.067375  0.613667  8.410055
928   2 0.0000  13.067375  0.613667 13.841356
929   2 0.0000  13.067375  0.613667 19.272657
930   2 0.0000  13.067375  0.613667 24.703958
931   2 0.0000  10.609892  4.870153  2.978754
932   2 0.0000  10.609892  4.870153  8.410055
933   2 0.0000  10.609892  4.870153 13.841356
934   2 0.0000  10.609892  4.870153 19.272657
935   2 0.0000  10.609892  4.870153 24.703958
936   2 0.0000   8.152410  9.126639  2.978754
937   2 0.0000   8.152410  9.126639  8.410055
938   2 0.0000   8.152410  9.126639 13.841356
939   2 0.0000   8.152410  9.126639 19.272657
940   2 0.0000   8.152410  9.126639 24.703958
941   2 0.0000   5.694927 13.383125  2.978754
942   2 0.0000   5.694927 13.383125  8.410055
943   2 0.0000   5.694927 13.383125 13.841356
944   2 0.0000   5.694927 13.383125 19.272657
945   2 0.0000   5.694927 13.383125 24.703958
946   2 0.0000   3.237445 17.639611  2.978754
947   2 0.0000   3.237445 17.639611  8.410055
948   2 0.0000   3.237445 17.639611 13.841356
949   2 0.0000   3.237445 17.639611 19.272657
950   2 0.0000   3.237445 17.639611 24.703958
951   2 0.0000  17.982341  0.613667  2.978754
952   2 0.0000  17.982341  0.613667  8.410055
953   2 0.0000  17.982341  0.613667 13.841356
954   2 0.0000  17.982341  0.613667 19.272657
955   2 0.0000  17.982341  0.613667 24.703958
956   2 0.0000  15.524858  4.870153  2.978754
957   2 0.0000  15.524858  4.870153  8.410055
958   2 0.0000  15.524858  4.870153 13.841356
959   2 0.0000  15.524858  4.870153 19.272657
960   2 0.0000  15.524858  4.870153 24.703958
961   2 0.0000  13.067376  9.126639  2.978754
962   2 0.0000  13.067376  9.126639  8.410055
963   2 0.0000  13.067376  9.126639 13.841356
964   2 0.0000  13.067376  9.126639 19.272657
965   2 0.0000  13.067376  9.126639 24.703958
966   2 0.0000  10.609893 13.383125  2.978754
967   2 0.0000  10.609893 13.383125  8.410055
968   2 0.0000  10.609893 13.383125 13.841356
969   2 0.0000  10.609893 13.383125 19.272657
970   2 0.0000  10.609893 13.383125 24.703958
971   2 0.0000   8.152411 17.639611  2.978754
972   2 0.0000   8.152411 17.639611  8.410055
973   2 0.0000   8.152411 17.639611 13.841356
974   2 0.0000   8.152411 17.639611 19.272657
975   2 0.0000   8.152411 17.639611 24.703958
976   2 0.0000  22.897307  0.613667  2.978754
977   2 0.0000  22.897307  0.613667  8.410055
978   2 0.0000  22.897307  0.613667 13.841356
979   2 0.0000  22.897307  0.613667 19.272657
980   2 0.0000  22.897307  0.613667 24.703958
981   2 0.0000  20.439824  4.870153  2.978754
982   2 0.0000  20.439824  4.870153  8.410055
983   2 0.0000  20.439824  4.870153 13.841356
984   2 0.0000  20.439824  4.870153 19.272657
985   2 0.0000  20.439824  4.870153 24.703958
986   2 0.0000  17.982342  9.126639  2.978754
987   2 0.0000  17.982342  9.126639  8.410055
988   2 0.0000  17.982342  9.126639 13.841356
989   2 0.0000  17.982342  9.126639 19.272657
990   2 0.0000  17.982342  9.126639 24.703958
991   2 0.0000  15.524859 13.383125  2.978754
992   2 0.0000  15.524859 13.383125  8.410055
993   2 0.0000  15.524859 13.383125 13.841356
994   2 0.0000  15.524859 13.383125 19.272657
995   2 0.0000  15.524859 13.383125 24.703958
996   2 0.0000  13.067377 17.639611  2.978754
997   2 0.0000  13.067377 17.639611  8.410055
998   2 0.0000  13.067377 17.639611 13.841356
999   2 0.0000  13.067377 17.639611 19.272657
1000  2 0.0000  13.067377 17.639611 24.703958
1001  2 0.0000   2.764791  2.496879  4.789186
1002  2 0.0000   2.764791  2.496879 10.220487
1003  2 0.0000   2.764791  2.496879 15.651788
1004  2 0.0000   2.764791  2.496879 21.083089
1005  2 0.0000   2.764791  2.496879 26.514390
1006  2 0.0000   0.307309  6.753365  4.789186
1007  2 0.0000   0.307309  6.753365 10.220487
1008  2 0.0000   0.307309  6.753365 15.651788
1009  2 0.0000   0.307309  6.753365 21.083089
1010  2 0.0000   0.307309  6.753365 26.514390
1011  2 0.0000  -2.150174 11.009851  4.789186
1012  2 0.0000  -2.150174 11.009851 10.220487
1013  2 0.0000  -2.150174 11.009851 15.651788
1014  2 0.0000  -2.150174 11.009851 21.083089
1015  2 0.0000  -2.150174 11.009851 26.514390
1016  2 0.0000  -4.607656 15.266337  4.789186
1017  2 0.0000  -4.607656 15.266337 10.220487
1018  2 0.0000  -4.607656 15.266337 15.651788
1019  2 0.0000  -4.607656 15.266337 21.083089
1020  2 0.0000  -4.607656 15.266337 26.514390
1021  2 0.0000  -7.065139 19.522823  4.789186
1022  2 0.0000  -7.065139 19.522823 10.220487
1023  2 0.0000  -7.065139 19.522823 15.651788
1024  2 0.0000  -7.065139 19.522823 21.083089
1025  2 0.0000  -7.065139 19.522823 26.514390
1026  2 0.0000   7.679757  2.496879  4.789186
1027  2 0.0000   7.679757  2.496879 10.220487
1028  2 0.0000   7.679757  2.496879 15.651788
1029  2 0.0000   7.679757  2.496879 21.083089
1030  2 0.0000   7.679757  2.496879 26.514390
1031  2 0.0000   5.222275  6.753365  4.789186
1032  2 0.0000   5.222275  6.753365 10.220487
1033  2 0.0000   5.222275  6.753365 15.651788
1034  2 0.0000   5.222275  6.753365 21.083089
1035  2 0.0000   5.222275  6.753365 26.514390
1036  2 0.0000   2.764792 11.009851  4.789186
1037  2 0.0000   2.764792 11.009851 10.220487
1038  2 0.0000   2.764792 11.009851 15.651788
1039  2 0.0000   2.764792 11.009851 21.083089
1040  2 0.0000   2.764792 11.009851 26.514390
1041  2 0.0000   0.307310 15.266337  4.789186
1042  2 0.0000   0.307310 15.266337 10.220487
1043  2 0.0000   0.307310 15.266337 15.651788
1044  2 0.0000   0.307310 15.266337 21.083089
1045  2 0.0000   0.307310 15.266337 26.514390
1046  2 0.0000  -2.150173 19.522823  4.789186
1047  2 0.0000  -2.150173 19.522823 10.220487
1048  2 0.0000  -2.150173 19.522823 15.651788
1049  2 0.0000  -2.150173 19.522823 21.083089
1050  2 0.0000  -2.150173 19.522823 26.514390
1051  2 0.0000  12.594723  2.496879  4.789186
1052  2 0.0000  12.594723  2.496879 10.220487
1053  2 0.0000  12.594723  2.496879 15.651788
1054  2 0.0000  12.594723  2.496879 21.083089
1055  2 0.0000  12.594723  2.496879 26.514390
1056  2 0.0000  10.137241  6.753365  4.789186
1057  2 0.0000  10.137241  6.753365 10.220487
1058  2 0.0000  10.137241  6.753365 15.651788
1059  2 0.0000  10.137241  6.753365 21.083089
1060  2 0.0000  10.137241  6.753365 26.514390
1061  2 0.0000   7.679758 11.009851  4.789186
1062  2 0.0000   7.679758 11.009851 10.220487
1063  2 0.0000   7.679758 11.009851 15.651788
1064  2 0.0000   7.679758 11.009851 21.083089
1065  2 0.0000   7.679758 11.009851 26.514390
1066  2 0.0000   5.222276 15.266337  4.789186
1067  2 0.0000   5.222276 15.266337 10.220487
1068  2 0.0000   5.222276 15.266337 15.651788
1069  2 0.0000   5.222276 15.266337 21.083089
1070  2 0.0000   5.222276 15.266337 26.514390
1071  2 0.0000   2.764793 19.522823  4.789186
1072  2 0.0000   2.764793 19.522823 10.220487
1073  2 0.0000   2.764793 19.522823 15.651788
1074  2 0.0000   2.764793 19.522823 21.083089
1075  2 0.0000   2.764793 19.522823 26.514390
1076  2 0.0000  17.509689  2.496879  4.789186
1077  2 0.0000  17.509689  2.496879 10.220487
1078  2 0.0000  17.509689  2.496879 15.651788
1079  2 0.0000  17.509689  2.496879 21.083089
1080  2 0.0000  17.509689  2.496879 26.514390
1081  2 0.0000  15.052207  6.753365  4.789186
1082  2 0.0000  15.052207  6.753365 10.220487
1083  2 0.0000  15.052207  6.753365 15.651788
1084  2 0.0000  15.052207  6.753365 21.083089
1085  2 0.0000  15.052207  6.753365 26.514390
1086  2 0.0000  12.594724 11.009851  4.789186
1087  2 0.0000  12.594724 11.009851 10.220487
1088  2 0.0000  12.594724 11.009851 15.651788
1089  2 0.0000  12.594724 11.009851 21.083089
1090  2 0.0000  12.594724 11.009851 26.514390
1091  2 0.0000  10.137242 15.266337  4.789186
1092  2 0.0000  10.137242 15.266337 10.220487
1093  2 0.0000  10.137242 15.266337 15.651788
1094  2 0.0000  10.137242 15.266337 21.083089
1095  2 0.0000  10.137242 15.266337 26.514390
1096  2 0.0000   7.679759 19.522823  4.789186
1097  2 0.0000   7.679759 19.522823 10.220487
1098  2 0.0000   7.679759 19.522823 15.651788
1099  2 0.0000   7.679759 19.522823 21.083089
1100  2 0.0000   7.679759 19.522823 26.514390
1101  2 0.0000  22.424655  2.496879  4.789186
1102  2 0.0000  22.424655  2.496879 10.220487
1103  2 0.0000  22.424655  2.496879 15.651788
1104  2 0.0000  22.424655  2.496879 21.083089
1105  2 0.0000  22.424655  2.496879 26.514390
1106  2 0.0000  19.967173  6.753365  4.789186
1107  2 0.0000  19.967173  6.753365 10.220487
1108  2 0.0000  19.967173  6.753365 15.651788
1109  2 0.0000  19.967173  6.753365 21.083089
1110  2 0.0000  19.967173  6.753365 26.514390
1111  2 0.0000  17.509690 11.009851  4.789186
1112  2 0.0000  17.509690 11.009851 10.220487
1113  2 0.0000  17.509690 11.009851 15.651788
1114  2 0.0000  17.509690 11.009851 21.083089
1115  2 0.0000  17.509690 11.009851 26.514390
1116  2 0.0000  15.052208 15.266337  4.789186
1117  2 0.0000  15.052208 15.266337 10.220487
1118  2 0.0000  15.052208 15.266337 15.651788
1119  2 0.0000  15.052208 15.266337 21.083089
1120  2 0.0000  15.052208 15.266337 26.514390
1121  2 0.0000  12.594725 19.522823  4.789186
1122  2 0.0000  12.594725 19.522823 10.220487
1123  2 0.0000  12.594725 19.522823 15.651788
1124  2 0.0000  12.594725 19.522823 21.083089
1125  2 0.0000  12.594725 19.522823 26.514390

