Generated by pymatgen.io.lammps.data.LammpsData

288  atoms

  3  atom types

0.000000 11.233836  xlo xhi
0.000000 34.040229  ylo yhi
0.000000 11.902263  zlo zhi

Masses

1  40.0780
2  55.8450
3  74.9216

Atoms

1    1 0.0000  0.936153  0.756022  9.913966
2    1 0.0000  0.936153 12.102765  9.913966
3    1 0.0000  0.936153 23.449508  9.913966
4    1 0.0000  4.680765  0.756022  9.913966
5    1 0.0000  4.680765 12.102765  9.913966
6    1 0.0000  4.680765 23.449508  9.913966
7    1 0.0000  8.425377  0.756022  9.913966
8    1 0.0000  8.425377 12.102765  9.913966
9    1 0.0000  8.425377 23.449508  9.913966
10   1 0.0000  2.808459 10.590721  1.988297
11   1 0.0000  2.808459 21.937464  1.988297
12   1 0.0000  2.808459 33.284207  1.988297
13   1 0.0000  6.553071 10.590721  1.988297
14   1 0.0000  6.553071 21.937464  1.988297
15   1 0.0000  6.553071 33.284207  1.988297
16   1 0.0000 10.297683 10.590721  1.988297
17   1 0.0000 10.297683 21.937464  1.988297
18   1 0.0000 10.297683 33.284207  1.988297
19   1 0.0000  2.808459  6.429394  7.939428
20   1 0.0000  2.808459 17.776137  7.939428
21   1 0.0000  2.808459 29.122880  7.939428
22   1 0.0000  6.553071  6.429394  7.939428
23   1 0.0000  6.553071 17.776137  7.939428
24   1 0.0000  6.553071 29.122880  7.939428
25   1 0.0000 10.297683  6.429394  7.939428
26   1 0.0000 10.297683 17.776137  7.939428
27   1 0.0000 10.297683 29.122880  7.939428
28   1 0.0000  0.936153  4.917349  3.962835
29   1 0.0000  0.936153 16.264092  3.962835
30   1 0.0000  0.936153 27.610835  3.962835
31   1 0.0000  4.680765  4.917349  3.962835
32   1 0.0000  4.680765 16.264092  3.962835
33   1 0.0000  4.680765 27.610835  3.962835
34   1 0.0000  8.425377  4.917349  3.962835
35   1 0.0000  8.425377 16.264092  3.962835
36   1 0.0000  8.425377 27.610835  3.962835
37   2 0.0000  0.936153  8.796029  9.649676
38   2 0.0000  0.936153 20.142772  9.649676
39   2 0.0000  0.936153 31.489515  9.649676
40   2 0.0000  4.680765  8.796029  9.649676
41   2 0.0000  4.680765 20.142772  9.649676
42   2 0.0000  4.680765 31.489515  9.649676
43   2 0.0000  8.425377  8.796029  9.649676
44   2 0.0000  8.425377 20.142772  9.649676
45   2 0.0000  8.425377 31.489515  9.649676
46   2 0.0000  2.808459  2.550714  2.252587
47   2 0.0000  2.808459 13.897457  2.252587
48   2 0.0000  2.808459 25.244200  2.252587
49   2 0.0000  6.553071  2.550714  2.252587
50   2 0.0000  6.553071 13.897457  2.252587
51   2 0.0000  6.553071 25.244200  2.252587
52   2 0.0000 10.297683  2.550714  2.252587
53   2 0.0000 10.297683 13.897457  2.252587
54   2 0.0000 10.297683 25.244200  2.252587
55   2 0.0000  2.808459  3.122658  8.203718
56   2 0.0000  2.808459 14.469401  8.203718
57   2 0.0000  2.808459 25.816144  8.203718
58   2 0.0000  6.553071  3.122658  8.203718
59   2 0.0000  6.553071 14.469401  8.203718
60   2 0.0000  6.553071 25.816144  8.203718
61   2 0.0000 10.297683  3.122658  8.203718
62   2 0.0000 10.297683 14.469401  8.203718
63   2 0.0000 10.297683 25.816144  8.203718
64   2 0.0000  0.936153  8.224085  3.698545
65   2 0.0000  0.936153 19.570828  3.698545
66   2 0.0000  0.936153 30.917571  3.698545
67   2 0.0000  4.680765  8.224085  3.698545
68   2 0.0000  4.680765 19.570828  3.698545
69   2 0.0000  4.680765 30.917571  3.698545
70   2 0.0000  8.425377  8.224085  3.698545
71   2 0.0000  8.425377 19.570828  3.698545
72   2 0.0000  8.425377 30.917571  3.698545
73   2 0.0000  0.936153  4.213545  9.603734
74   2 0.0000  0.936153 15.560288  9.603734
75   2 0.0000  0.936153 26.907031  9.603734
76   2 0.0000  4.680765  4.213545  9.603734
77   2 0.0000  4.680765 15.560288  9.603734
78   2 0.0000  4.680765 26.907031  9.603734
79   2 0.0000  8.425377  4.213545  9.603734
80   2 0.0000  8.425377 15.560288  9.603734
81   2 0.0000  8.425377 26.907031  9.603734
82   2 0.0000  2.808459  7.133198  2.298529
83   2 0.0000  2.808459 18.479941  2.298529
84   2 0.0000  2.808459 29.826684  2.298529
85   2 0.0000  6.553071  7.133198  2.298529
86   2 0.0000  6.553071 18.479941  2.298529
87   2 0.0000  6.553071 29.826684  2.298529
88   2 0.0000 10.297683  7.133198  2.298529
89   2 0.0000 10.297683 18.479941  2.298529
90   2 0.0000 10.297683 29.826684  2.298529
91   2 0.0000  2.808459  9.886916  8.249661
92   2 0.0000  2.808459 21.233659  8.249661
93   2 0.0000  2.808459 32.580402  8.249661
94   2 0.0000  6.553071  9.886916  8.249661
95   2 0.0000  6.553071 21.233659  8.249661
96   2 0.0000  6.553071 32.580402  8.249661
97   2 0.0000 10.297683  9.886916  8.249661
98   2 0.0000 10.297683 21.233659  8.249661
99   2 0.0000 10.297683 32.580402  8.249661
100  2 0.0000  0.936153  1.459827  3.652602
101  2 0.0000  0.936153 12.806570  3.652602
102  2 0.0000  0.936153 24.153313  3.652602
103  2 0.0000  4.680765  1.459827  3.652602
104  2 0.0000  4.680765 12.806570  3.652602
105  2 0.0000  4.680765 24.153313  3.652602
106  2 0.0000  8.425377  1.459827  3.652602
107  2 0.0000  8.425377 12.806570  3.652602
108  2 0.0000  8.425377 24.153313  3.652602
109  2 0.0000  0.936153  3.593548  0.165489
110  2 0.0000  0.936153 14.940291  0.165489
111  2 0.0000  0.936153 26.287034  0.165489
112  2 0.0000  4.680765  3.593548  0.165489
113  2 0.0000  4.680765 14.940291  0.165489
114  2 0.0000  4.680765 26.287034  0.165489
115  2 0.0000  8.425377  3.593548  0.165489
116  2 0.0000  8.425377 14.940291  0.165489
117  2 0.0000  8.425377 26.287034  0.165489
118  2 0.0000  2.808459  7.753195 11.736774
119  2 0.0000  2.808459 19.099938 11.736774
120  2 0.0000  2.808459 30.446681 11.736774
121  2 0.0000  6.553071  7.753195 11.736774
122  2 0.0000  6.553071 19.099938 11.736774
123  2 0.0000  6.553071 30.446681 11.736774
124  2 0.0000 10.297683  7.753195 11.736774
125  2 0.0000 10.297683 19.099938 11.736774
126  2 0.0000 10.297683 30.446681 11.736774
127  2 0.0000  2.808459  9.266919  5.785642
128  2 0.0000  2.808459 20.613662  5.785642
129  2 0.0000  2.808459 31.960405  5.785642
130  2 0.0000  6.553071  9.266919  5.785642
131  2 0.0000  6.553071 20.613662  5.785642
132  2 0.0000  6.553071 31.960405  5.785642
133  2 0.0000 10.297683  9.266919  5.785642
134  2 0.0000 10.297683 20.613662  5.785642
135  2 0.0000 10.297683 31.960405  5.785642
136  2 0.0000  0.936153  2.079824  6.116621
137  2 0.0000  0.936153 13.426567  6.116621
138  2 0.0000  0.936153 24.773310  6.116621
139  2 0.0000  4.680765  2.079824  6.116621
140  2 0.0000  4.680765 13.426567  6.116621
141  2 0.0000  4.680765 24.773310  6.116621
142  2 0.0000  8.425377  2.079824  6.116621
143  2 0.0000  8.425377 13.426567  6.116621
144  2 0.0000  8.425377 24.773310  6.116621
145  2 0.0000  0.936153  6.115804  0.810389
146  2 0.0000  0.936153 17.462547  0.810389
147  2 0.0000  0.936153 28.809290  0.810389
148  2 0.0000  4.680765  6.115804  0.810389
149  2 0.0000  4.680765 17.462547  0.810389
150  2 0.0000  4.680765 28.809290  0.810389
151  2 0.0000  8.425377  6.115804  0.810389
152  2 0.0000  8.425377 17.462547  0.810389
153  2 0.0000  8.425377 28.809290  0.810389
154  2 0.0000  2.808459  5.230939 11.091874
155  2 0.0000  2.808459 16.577682 11.091874
156  2 0.0000  2.808459 27.924425 11.091874
157  2 0.0000  6.553071  5.230939 11.091874
158  2 0.0000  6.553071 16.577682 11.091874
159  2 0.0000  6.553071 27.924425 11.091874
160  2 0.0000 10.297683  5.230939 11.091874
161  2 0.0000 10.297683 16.577682 11.091874
162  2 0.0000 10.297683 27.924425 11.091874
163  2 0.0000  2.808459  0.442432  5.140742
164  2 0.0000  2.808459 11.789175  5.140742
165  2 0.0000  2.808459 23.135918  5.140742
166  2 0.0000  6.553071  0.442432  5.140742
167  2 0.0000  6.553071 11.789175  5.140742
168  2 0.0000  6.553071 23.135918  5.140742
169  2 0.0000 10.297683  0.442432  5.140742
170  2 0.0000 10.297683 11.789175  5.140742
171  2 0.0000 10.297683 23.135918  5.140742
172  2 0.0000  0.936153 10.904311  6.761521
173  2 0.0000  0.936153 22.251054  6.761521
174  2 0.0000  0.936153 33.597797  6.761521
175  2 0.0000  4.680765 10.904311  6.761521
176  2 0.0000  4.680765 22.251054  6.761521
177  2 0.0000  4.680765 33.597797  6.761521
178  2 0.0000  8.425377 10.904311  6.761521
179  2 0.0000  8.425377 22.251054  6.761521
180  2 0.0000  8.425377 33.597797  6.761521
181  3 0.0000  0.936153  6.528757 10.395698
182  3 0.0000  0.936153 17.875500 10.395698
183  3 0.0000  0.936153 29.222243 10.395698
184  3 0.0000  4.680765  6.528757 10.395698
185  3 0.0000  4.680765 17.875500 10.395698
186  3 0.0000  4.680765 29.222243 10.395698
187  3 0.0000  8.425377  6.528757 10.395698
188  3 0.0000  8.425377 17.875500 10.395698
189  3 0.0000  8.425377 29.222243 10.395698
190  3 0.0000  2.808459  4.817986  1.506565
191  3 0.0000  2.808459 16.164729  1.506565
192  3 0.0000  2.808459 27.511472  1.506565
193  3 0.0000  6.553071  4.817986  1.506565
194  3 0.0000  6.553071 16.164729  1.506565
195  3 0.0000  6.553071 27.511472  1.506565
196  3 0.0000 10.297683  4.817986  1.506565
197  3 0.0000 10.297683 16.164729  1.506565
198  3 0.0000 10.297683 27.511472  1.506565
199  3 0.0000  2.808459  0.855386  7.457696
200  3 0.0000  2.808459 12.202129  7.457696
201  3 0.0000  2.808459 23.548872  7.457696
202  3 0.0000  6.553071  0.855386  7.457696
203  3 0.0000  6.553071 12.202129  7.457696
204  3 0.0000  6.553071 23.548872  7.457696
205  3 0.0000 10.297683  0.855386  7.457696
206  3 0.0000 10.297683 12.202129  7.457696
207  3 0.0000 10.297683 23.548872  7.457696
208  3 0.0000  0.936153 10.491357  4.444567
209  3 0.0000  0.936153 21.838100  4.444567
210  3 0.0000  0.936153 33.184843  4.444567
211  3 0.0000  4.680765 10.491357  4.444567
212  3 0.0000  4.680765 21.838100  4.444567
213  3 0.0000  4.680765 33.184843  4.444567
214  3 0.0000  8.425377 10.491357  4.444567
215  3 0.0000  8.425377 21.838100  4.444567
216  3 0.0000  8.425377 33.184843  4.444567
217  3 0.0000  0.936153  8.623445  7.279674
218  3 0.0000  0.936153 19.970188  7.279674
219  3 0.0000  0.936153 31.316931  7.279674
220  3 0.0000  4.680765  8.623445  7.279674
221  3 0.0000  4.680765 19.970188  7.279674
222  3 0.0000  4.680765 31.316931  7.279674
223  3 0.0000  8.425377  8.623445  7.279674
224  3 0.0000  8.425377 19.970188  7.279674
225  3 0.0000  8.425377 31.316931  7.279674
226  3 0.0000  2.808459  2.723298  4.622589
227  3 0.0000  2.808459 14.070041  4.622589
228  3 0.0000  2.808459 25.416784  4.622589
229  3 0.0000  6.553071  2.723298  4.622589
230  3 0.0000  6.553071 14.070041  4.622589
231  3 0.0000  6.553071 25.416784  4.622589
232  3 0.0000 10.297683  2.723298  4.622589
233  3 0.0000 10.297683 14.070041  4.622589
234  3 0.0000 10.297683 25.416784  4.622589
235  3 0.0000  2.808459  2.950074 10.573721
236  3 0.0000  2.808459 14.296817 10.573721
237  3 0.0000  2.808459 25.643560 10.573721
238  3 0.0000  6.553071  2.950074 10.573721
239  3 0.0000  6.553071 14.296817 10.573721
240  3 0.0000  6.553071 25.643560 10.573721
241  3 0.0000 10.297683  2.950074 10.573721
242  3 0.0000 10.297683 14.296817 10.573721
243  3 0.0000 10.297683 25.643560 10.573721
244  3 0.0000  0.936153  8.396669  1.328542
245  3 0.0000  0.936153 19.743412  1.328542
246  3 0.0000  0.936153 31.090155  1.328542
247  3 0.0000  4.680765  8.396669  1.328542
248  3 0.0000  4.680765 19.743412  1.328542
249  3 0.0000  4.680765 31.090155  1.328542
250  3 0.0000  8.425377  8.396669  1.328542
251  3 0.0000  8.425377 19.743412  1.328542
252  3 0.0000  8.425377 31.090155  1.328542
253  3 0.0000  0.936153  4.236828  7.175220
254  3 0.0000  0.936153 15.583571  7.175220
255  3 0.0000  0.936153 26.930314  7.175220
256  3 0.0000  4.680765  4.236828  7.175220
257  3 0.0000  4.680765 15.583571  7.175220
258  3 0.0000  4.680765 26.930314  7.175220
259  3 0.0000  8.425377  4.236828  7.175220
260  3 0.0000  8.425377 15.583571  7.175220
261  3 0.0000  8.425377 26.930314  7.175220
262  3 0.0000  2.808459  7.109915  4.727043
263  3 0.0000  2.808459 18.456658  4.727043
264  3 0.0000  2.808459 29.803401  4.727043
265  3 0.0000  6.553071  7.109915  4.727043
266  3 0.0000  6.553071 18.456658  4.727043
267  3 0.0000  6.553071 29.803401  4.727043
268  3 0.0000 10.297683  7.109915  4.727043
269  3 0.0000 10.297683 18.456658  4.727043
270  3 0.0000 10.297683 29.803401  4.727043
271  3 0.0000  2.808459  9.910200 10.678175
272  3 0.0000  2.808459 21.256943 10.678175
273  3 0.0000  2.808459 32.603686 10.678175
274  3 0.0000  6.553071  9.910200 10.678175
275  3 0.0000  6.553071 21.256943 10.678175
276  3 0.0000  6.553071 32.603686 10.678175
277  3 0.0000 10.297683  9.910200 10.678175
278  3 0.0000 10.297683 21.256943 10.678175
279  3 0.0000 10.297683 32.603686 10.678175
280  3 0.0000  0.936153  1.436543  1.224088
281  3 0.0000  0.936153 12.783286  1.224088
282  3 0.0000  0.936153 24.130029  1.224088
283  3 0.0000  4.680765  1.436543  1.224088
284  3 0.0000  4.680765 12.783286  1.224088
285  3 0.0000  4.680765 24.130029  1.224088
286  3 0.0000  8.425377  1.436543  1.224088
287  3 0.0000  8.425377 12.783286  1.224088
288  3 0.0000  8.425377 24.130029  1.224088

