Generated by pymatgen.io.lammps.data.LammpsData

1500  atoms

   2  atom types

0.000000 24.163098  xlo xhi
0.000000 24.163098  ylo yhi
0.000000 38.256456  zlo zhi

Masses

1  127.6000
2   15.9994

Atoms

1     1 0.0000  4.698615  4.698615  3.825646
2     1 0.0000  4.698615  4.698615 11.476937
3     1 0.0000  4.698615  4.698615 19.128228
4     1 0.0000  4.698615  4.698615 26.779519
5     1 0.0000  4.698615  4.698615 34.430810
6     1 0.0000  4.698615  9.531234  3.825646
7     1 0.0000  4.698615  9.531234 11.476937
8     1 0.0000  4.698615  9.531234 19.128228
9     1 0.0000  4.698615  9.531234 26.779519
10    1 0.0000  4.698615  9.531234 34.430810
11    1 0.0000  4.698615 14.363854  3.825646
12    1 0.0000  4.698615 14.363854 11.476937
13    1 0.0000  4.698615 14.363854 19.128228
14    1 0.0000  4.698615 14.363854 26.779519
15    1 0.0000  4.698615 14.363854 34.430810
16    1 0.0000  4.698615 19.196473  3.825646
17    1 0.0000  4.698615 19.196473 11.476937
18    1 0.0000  4.698615 19.196473 19.128228
19    1 0.0000  4.698615 19.196473 26.779519
20    1 0.0000  4.698615 19.196473 34.430810
21    1 0.0000  4.698615 24.029093  3.825646
22    1 0.0000  4.698615 24.029093 11.476937
23    1 0.0000  4.698615 24.029093 19.128228
24    1 0.0000  4.698615 24.029093 26.779519
25    1 0.0000  4.698615 24.029093 34.430810
26    1 0.0000  9.531234  4.698615  3.825646
27    1 0.0000  9.531234  4.698615 11.476937
28    1 0.0000  9.531234  4.698615 19.128228
29    1 0.0000  9.531234  4.698615 26.779519
30    1 0.0000  9.531234  4.698615 34.430810
31    1 0.0000  9.531234  9.531234  3.825646
32    1 0.0000  9.531234  9.531234 11.476937
33    1 0.0000  9.531234  9.531234 19.128228
34    1 0.0000  9.531234  9.531234 26.779519
35    1 0.0000  9.531234  9.531234 34.430810
36    1 0.0000  9.531234 14.363854  3.825646
37    1 0.0000  9.531234 14.363854 11.476937
38    1 0.0000  9.531234 14.363854 19.128228
39    1 0.0000  9.531234 14.363854 26.779519
40    1 0.0000  9.531234 14.363854 34.430810
41    1 0.0000  9.531234 19.196473  3.825646
42    1 0.0000  9.531234 19.196473 11.476937
43    1 0.0000  9.531234 19.196473 19.128228
44    1 0.0000  9.531234 19.196473 26.779519
45    1 0.0000  9.531234 19.196473 34.430810
46    1 0.0000  9.531234 24.029093  3.825646
47    1 0.0000  9.531234 24.029093 11.476937
48    1 0.0000  9.531234 24.029093 19.128228
49    1 0.0000  9.531234 24.029093 26.779519
50    1 0.0000  9.531234 24.029093 34.430810
51    1 0.0000 14.363854  4.698615  3.825646
52    1 0.0000 14.363854  4.698615 11.476937
53    1 0.0000 14.363854  4.698615 19.128228
54    1 0.0000 14.363854  4.698615 26.779519
55    1 0.0000 14.363854  4.698615 34.430810
56    1 0.0000 14.363854  9.531234  3.825646
57    1 0.0000 14.363854  9.531234 11.476937
58    1 0.0000 14.363854  9.531234 19.128228
59    1 0.0000 14.363854  9.531234 26.779519
60    1 0.0000 14.363854  9.531234 34.430810
61    1 0.0000 14.363854 14.363854  3.825646
62    1 0.0000 14.363854 14.363854 11.476937
63    1 0.0000 14.363854 14.363854 19.128228
64    1 0.0000 14.363854 14.363854 26.779519
65    1 0.0000 14.363854 14.363854 34.430810
66    1 0.0000 14.363854 19.196473  3.825646
67    1 0.0000 14.363854 19.196473 11.476937
68    1 0.0000 14.363854 19.196473 19.128228
69    1 0.0000 14.363854 19.196473 26.779519
70    1 0.0000 14.363854 19.196473 34.430810
71    1 0.0000 14.363854 24.029093  3.825646
72    1 0.0000 14.363854 24.029093 11.476937
73    1 0.0000 14.363854 24.029093 19.128228
74    1 0.0000 14.363854 24.029093 26.779519
75    1 0.0000 14.363854 24.029093 34.430810
76    1 0.0000 19.196473  4.698615  3.825646
77    1 0.0000 19.196473  4.698615 11.476937
78    1 0.0000 19.196473  4.698615 19.128228
79    1 0.0000 19.196473  4.698615 26.779519
80    1 0.0000 19.196473  4.698615 34.430810
81    1 0.0000 19.196473  9.531234  3.825646
82    1 0.0000 19.196473  9.531234 11.476937
83    1 0.0000 19.196473  9.531234 19.128228
84    1 0.0000 19.196473  9.531234 26.779519
85    1 0.0000 19.196473  9.531234 34.430810
86    1 0.0000 19.196473 14.363854  3.825646
87    1 0.0000 19.196473 14.363854 11.476937
88    1 0.0000 19.196473 14.363854 19.128228
89    1 0.0000 19.196473 14.363854 26.779519
90    1 0.0000 19.196473 14.363854 34.430810
91    1 0.0000 19.196473 19.196473  3.825646
92    1 0.0000 19.196473 19.196473 11.476937
93    1 0.0000 19.196473 19.196473 19.128228
94    1 0.0000 19.196473 19.196473 26.779519
95    1 0.0000 19.196473 19.196473 34.430810
96    1 0.0000 19.196473 24.029093  3.825646
97    1 0.0000 19.196473 24.029093 11.476937
98    1 0.0000 19.196473 24.029093 19.128228
99    1 0.0000 19.196473 24.029093 26.779519
100   1 0.0000 19.196473 24.029093 34.430810
101   1 0.0000 24.029093  4.698615  3.825646
102   1 0.0000 24.029093  4.698615 11.476937
103   1 0.0000 24.029093  4.698615 19.128228
104   1 0.0000 24.029093  4.698615 26.779519
105   1 0.0000 24.029093  4.698615 34.430810
106   1 0.0000 24.029093  9.531234  3.825646
107   1 0.0000 24.029093  9.531234 11.476937
108   1 0.0000 24.029093  9.531234 19.128228
109   1 0.0000 24.029093  9.531234 26.779519
110   1 0.0000 24.029093  9.531234 34.430810
111   1 0.0000 24.029093 14.363854  3.825646
112   1 0.0000 24.029093 14.363854 11.476937
113   1 0.0000 24.029093 14.363854 19.128228
114   1 0.0000 24.029093 14.363854 26.779519
115   1 0.0000 24.029093 14.363854 34.430810
116   1 0.0000 24.029093 19.196473  3.825646
117   1 0.0000 24.029093 19.196473 11.476937
118   1 0.0000 24.029093 19.196473 19.128228
119   1 0.0000 24.029093 19.196473 26.779519
120   1 0.0000 24.029093 19.196473 34.430810
121   1 0.0000 24.029093 24.029093  3.825646
122   1 0.0000 24.029093 24.029093 11.476937
123   1 0.0000 24.029093 24.029093 19.128228
124   1 0.0000 24.029093 24.029093 26.779519
125   1 0.0000 24.029093 24.029093 34.430810
126   1 0.0000  2.550314  2.282305  5.738468
127   1 0.0000  2.550314  2.282305 13.389760
128   1 0.0000  2.550314  2.282305 21.041051
129   1 0.0000  2.550314  2.282305 28.692342
130   1 0.0000  2.550314  2.282305 36.343633
131   1 0.0000  2.550314  7.114925  5.738468
132   1 0.0000  2.550314  7.114925 13.389760
133   1 0.0000  2.550314  7.114925 21.041051
134   1 0.0000  2.550314  7.114925 28.692342
135   1 0.0000  2.550314  7.114925 36.343633
136   1 0.0000  2.550314 11.947544  5.738468
137   1 0.0000  2.550314 11.947544 13.389760
138   1 0.0000  2.550314 11.947544 21.041051
139   1 0.0000  2.550314 11.947544 28.692342
140   1 0.0000  2.550314 11.947544 36.343633
141   1 0.0000  2.550314 16.780164  5.738468
142   1 0.0000  2.550314 16.780164 13.389760
143   1 0.0000  2.550314 16.780164 21.041051
144   1 0.0000  2.550314 16.780164 28.692342
145   1 0.0000  2.550314 16.780164 36.343633
146   1 0.0000  2.550314 21.612783  5.738468
147   1 0.0000  2.550314 21.612783 13.389760
148   1 0.0000  2.550314 21.612783 21.041051
149   1 0.0000  2.550314 21.612783 28.692342
150   1 0.0000  2.550314 21.612783 36.343633
151   1 0.0000  7.382934  2.282305  5.738468
152   1 0.0000  7.382934  2.282305 13.389760
153   1 0.0000  7.382934  2.282305 21.041051
154   1 0.0000  7.382934  2.282305 28.692342
155   1 0.0000  7.382934  2.282305 36.343633
156   1 0.0000  7.382934  7.114925  5.738468
157   1 0.0000  7.382934  7.114925 13.389760
158   1 0.0000  7.382934  7.114925 21.041051
159   1 0.0000  7.382934  7.114925 28.692342
160   1 0.0000  7.382934  7.114925 36.343633
161   1 0.0000  7.382934 11.947544  5.738468
162   1 0.0000  7.382934 11.947544 13.389760
163   1 0.0000  7.382934 11.947544 21.041051
164   1 0.0000  7.382934 11.947544 28.692342
165   1 0.0000  7.382934 11.947544 36.343633
166   1 0.0000  7.382934 16.780164  5.738468
167   1 0.0000  7.382934 16.780164 13.389760
168   1 0.0000  7.382934 16.780164 21.041051
169   1 0.0000  7.382934 16.780164 28.692342
170   1 0.0000  7.382934 16.780164 36.343633
171   1 0.0000  7.382934 21.612783  5.738468
172   1 0.0000  7.382934 21.612783 13.389760
173   1 0.0000  7.382934 21.612783 21.041051
174   1 0.0000  7.382934 21.612783 28.692342
175   1 0.0000  7.382934 21.612783 36.343633
176   1 0.0000 12.215553  2.282305  5.738468
177   1 0.0000 12.215553  2.282305 13.389760
178   1 0.0000 12.215553  2.282305 21.041051
179   1 0.0000 12.215553  2.282305 28.692342
180   1 0.0000 12.215553  2.282305 36.343633
181   1 0.0000 12.215553  7.114925  5.738468
182   1 0.0000 12.215553  7.114925 13.389760
183   1 0.0000 12.215553  7.114925 21.041051
184   1 0.0000 12.215553  7.114925 28.692342
185   1 0.0000 12.215553  7.114925 36.343633
186   1 0.0000 12.215553 11.947544  5.738468
187   1 0.0000 12.215553 11.947544 13.389760
188   1 0.0000 12.215553 11.947544 21.041051
189   1 0.0000 12.215553 11.947544 28.692342
190   1 0.0000 12.215553 11.947544 36.343633
191   1 0.0000 12.215553 16.780164  5.738468
192   1 0.0000 12.215553 16.780164 13.389760
193   1 0.0000 12.215553 16.780164 21.041051
194   1 0.0000 12.215553 16.780164 28.692342
195   1 0.0000 12.215553 16.780164 36.343633
196   1 0.0000 12.215553 21.612783  5.738468
197   1 0.0000 12.215553 21.612783 13.389760
198   1 0.0000 12.215553 21.612783 21.041051
199   1 0.0000 12.215553 21.612783 28.692342
200   1 0.0000 12.215553 21.612783 36.343633
201   1 0.0000 17.048173  2.282305  5.738468
202   1 0.0000 17.048173  2.282305 13.389760
203   1 0.0000 17.048173  2.282305 21.041051
204   1 0.0000 17.048173  2.282305 28.692342
205   1 0.0000 17.048173  2.282305 36.343633
206   1 0.0000 17.048173  7.114925  5.738468
207   1 0.0000 17.048173  7.114925 13.389760
208   1 0.0000 17.048173  7.114925 21.041051
209   1 0.0000 17.048173  7.114925 28.692342
210   1 0.0000 17.048173  7.114925 36.343633
211   1 0.0000 17.048173 11.947544  5.738468
212   1 0.0000 17.048173 11.947544 13.389760
213   1 0.0000 17.048173 11.947544 21.041051
214   1 0.0000 17.048173 11.947544 28.692342
215   1 0.0000 17.048173 11.947544 36.343633
216   1 0.0000 17.048173 16.780164  5.738468
217   1 0.0000 17.048173 16.780164 13.389760
218   1 0.0000 17.048173 16.780164 21.041051
219   1 0.0000 17.048173 16.780164 28.692342
220   1 0.0000 17.048173 16.780164 36.343633
221   1 0.0000 17.048173 21.612783  5.738468
222   1 0.0000 17.048173 21.612783 13.389760
223   1 0.0000 17.048173 21.612783 21.041051
224   1 0.0000 17.048173 21.612783 28.692342
225   1 0.0000 17.048173 21.612783 36.343633
226   1 0.0000 21.880792  2.282305  5.738468
227   1 0.0000 21.880792  2.282305 13.389760
228   1 0.0000 21.880792  2.282305 21.041051
229   1 0.0000 21.880792  2.282305 28.692342
230   1 0.0000 21.880792  2.282305 36.343633
231   1 0.0000 21.880792  7.114925  5.738468
232   1 0.0000 21.880792  7.114925 13.389760
233   1 0.0000 21.880792  7.114925 21.041051
234   1 0.0000 21.880792  7.114925 28.692342
235   1 0.0000 21.880792  7.114925 36.343633
236   1 0.0000 21.880792 11.947544  5.738468
237   1 0.0000 21.880792 11.947544 13.389760
238   1 0.0000 21.880792 11.947544 21.041051
239   1 0.0000 21.880792 11.947544 28.692342
240   1 0.0000 21.880792 11.947544 36.343633
241   1 0.0000 21.880792 16.780164  5.738468
242   1 0.0000 21.880792 16.780164 13.389760
243   1 0.0000 21.880792 16.780164 21.041051
244   1 0.0000 21.880792 16.780164 28.692342
245   1 0.0000 21.880792 16.780164 36.343633
246   1 0.0000 21.880792 21.612783  5.738468
247   1 0.0000 21.880792 21.612783 13.389760
248   1 0.0000 21.880792 21.612783 21.041051
249   1 0.0000 21.880792 21.612783 28.692342
250   1 0.0000 21.880792 21.612783 36.343633
251   1 0.0000  2.282305  2.550314  1.912823
252   1 0.0000  2.282305  2.550314  9.564114
253   1 0.0000  2.282305  2.550314 17.215405
254   1 0.0000  2.282305  2.550314 24.866696
255   1 0.0000  2.282305  2.550314 32.517988
256   1 0.0000  2.282305  7.382934  1.912823
257   1 0.0000  2.282305  7.382934  9.564114
258   1 0.0000  2.282305  7.382934 17.215405
259   1 0.0000  2.282305  7.382934 24.866696
260   1 0.0000  2.282305  7.382934 32.517988
261   1 0.0000  2.282305 12.215553  1.912823
262   1 0.0000  2.282305 12.215553  9.564114
263   1 0.0000  2.282305 12.215553 17.215405
264   1 0.0000  2.282305 12.215553 24.866696
265   1 0.0000  2.282305 12.215553 32.517988
266   1 0.0000  2.282305 17.048173  1.912823
267   1 0.0000  2.282305 17.048173  9.564114
268   1 0.0000  2.282305 17.048173 17.215405
269   1 0.0000  2.282305 17.048173 24.866696
270   1 0.0000  2.282305 17.048173 32.517988
271   1 0.0000  2.282305 21.880792  1.912823
272   1 0.0000  2.282305 21.880792  9.564114
273   1 0.0000  2.282305 21.880792 17.215405
274   1 0.0000  2.282305 21.880792 24.866696
275   1 0.0000  2.282305 21.880792 32.517988
276   1 0.0000  7.114925  2.550314  1.912823
277   1 0.0000  7.114925  2.550314  9.564114
278   1 0.0000  7.114925  2.550314 17.215405
279   1 0.0000  7.114925  2.550314 24.866696
280   1 0.0000  7.114925  2.550314 32.517988
281   1 0.0000  7.114925  7.382934  1.912823
282   1 0.0000  7.114925  7.382934  9.564114
283   1 0.0000  7.114925  7.382934 17.215405
284   1 0.0000  7.114925  7.382934 24.866696
285   1 0.0000  7.114925  7.382934 32.517988
286   1 0.0000  7.114925 12.215553  1.912823
287   1 0.0000  7.114925 12.215553  9.564114
288   1 0.0000  7.114925 12.215553 17.215405
289   1 0.0000  7.114925 12.215553 24.866696
290   1 0.0000  7.114925 12.215553 32.517988
291   1 0.0000  7.114925 17.048173  1.912823
292   1 0.0000  7.114925 17.048173  9.564114
293   1 0.0000  7.114925 17.048173 17.215405
294   1 0.0000  7.114925 17.048173 24.866696
295   1 0.0000  7.114925 17.048173 32.517988
296   1 0.0000  7.114925 21.880792  1.912823
297   1 0.0000  7.114925 21.880792  9.564114
298   1 0.0000  7.114925 21.880792 17.215405
299   1 0.0000  7.114925 21.880792 24.866696
300   1 0.0000  7.114925 21.880792 32.517988
301   1 0.0000 11.947544  2.550314  1.912823
302   1 0.0000 11.947544  2.550314  9.564114
303   1 0.0000 11.947544  2.550314 17.215405
304   1 0.0000 11.947544  2.550314 24.866696
305   1 0.0000 11.947544  2.550314 32.517988
306   1 0.0000 11.947544  7.382934  1.912823
307   1 0.0000 11.947544  7.382934  9.564114
308   1 0.0000 11.947544  7.382934 17.215405
309   1 0.0000 11.947544  7.382934 24.866696
310   1 0.0000 11.947544  7.382934 32.517988
311   1 0.0000 11.947544 12.215553  1.912823
312   1 0.0000 11.947544 12.215553  9.564114
313   1 0.0000 11.947544 12.215553 17.215405
314   1 0.0000 11.947544 12.215553 24.866696
315   1 0.0000 11.947544 12.215553 32.517988
316   1 0.0000 11.947544 17.048173  1.912823
317   1 0.0000 11.947544 17.048173  9.564114
318   1 0.0000 11.947544 17.048173 17.215405
319   1 0.0000 11.947544 17.048173 24.866696
320   1 0.0000 11.947544 17.048173 32.517988
321   1 0.0000 11.947544 21.880792  1.912823
322   1 0.0000 11.947544 21.880792  9.564114
323   1 0.0000 11.947544 21.880792 17.215405
324   1 0.0000 11.947544 21.880792 24.866696
325   1 0.0000 11.947544 21.880792 32.517988
326   1 0.0000 16.780164  2.550314  1.912823
327   1 0.0000 16.780164  2.550314  9.564114
328   1 0.0000 16.780164  2.550314 17.215405
329   1 0.0000 16.780164  2.550314 24.866696
330   1 0.0000 16.780164  2.550314 32.517988
331   1 0.0000 16.780164  7.382934  1.912823
332   1 0.0000 16.780164  7.382934  9.564114
333   1 0.0000 16.780164  7.382934 17.215405
334   1 0.0000 16.780164  7.382934 24.866696
335   1 0.0000 16.780164  7.382934 32.517988
336   1 0.0000 16.780164 12.215553  1.912823
337   1 0.0000 16.780164 12.215553  9.564114
338   1 0.0000 16.780164 12.215553 17.215405
339   1 0.0000 16.780164 12.215553 24.866696
340   1 0.0000 16.780164 12.215553 32.517988
341   1 0.0000 16.780164 17.048173  1.912823
342   1 0.0000 16.780164 17.048173  9.564114
343   1 0.0000 16.780164 17.048173 17.215405
344   1 0.0000 16.780164 17.048173 24.866696
345   1 0.0000 16.780164 17.048173 32.517988
346   1 0.0000 16.780164 21.880792  1.912823
347   1 0.0000 16.780164 21.880792  9.564114
348   1 0.0000 16.780164 21.880792 17.215405
349   1 0.0000 16.780164 21.880792 24.866696
350   1 0.0000 16.780164 21.880792 32.517988
351   1 0.0000 21.612783  2.550314  1.912823
352   1 0.0000 21.612783  2.550314  9.564114
353   1 0.0000 21.612783  2.550314 17.215405
354   1 0.0000 21.612783  2.550314 24.866696
355   1 0.0000 21.612783  2.550314 32.517988
356   1 0.0000 21.612783  7.382934  1.912823
357   1 0.0000 21.612783  7.382934  9.564114
358   1 0.0000 21.612783  7.382934 17.215405
359   1 0.0000 21.612783  7.382934 24.866696
360   1 0.0000 21.612783  7.382934 32.517988
361   1 0.0000 21.612783 12.215553  1.912823
362   1 0.0000 21.612783 12.215553  9.564114
363   1 0.0000 21.612783 12.215553 17.215405
364   1 0.0000 21.612783 12.215553 24.866696
365   1 0.0000 21.612783 12.215553 32.517988
366   1 0.0000 21.612783 17.048173  1.912823
367   1 0.0000 21.612783 17.048173  9.564114
368   1 0.0000 21.612783 17.048173 17.215405
369   1 0.0000 21.612783 17.048173 24.866696
370   1 0.0000 21.612783 17.048173 32.517988
371   1 0.0000 21.612783 21.880792  1.912823
372   1 0.0000 21.612783 21.880792  9.564114
373   1 0.0000 21.612783 21.880792 17.215405
374   1 0.0000 21.612783 21.880792 24.866696
375   1 0.0000 21.612783 21.880792 32.517988
376   1 0.0000  0.134005  0.134005  0.000000
377   1 0.0000  0.134005  0.134005  7.651291
378   1 0.0000  0.134005  0.134005 15.302582
379   1 0.0000  0.134005  0.134005 22.953874
380   1 0.0000  0.134005  0.134005 30.605165
381   1 0.0000  0.134005  4.966624  0.000000
382   1 0.0000  0.134005  4.966624  7.651291
383   1 0.0000  0.134005  4.966624 15.302582
384   1 0.0000  0.134005  4.966624 22.953874
385   1 0.0000  0.134005  4.966624 30.605165
386   1 0.0000  0.134005  9.799244 -0.000000
387   1 0.0000  0.134005  9.799244  7.651291
388   1 0.0000  0.134005  9.799244 15.302582
389   1 0.0000  0.134005  9.799244 22.953874
390   1 0.0000  0.134005  9.799244 30.605165
391   1 0.0000  0.134005 14.631863 -0.000000
392   1 0.0000  0.134005 14.631863  7.651291
393   1 0.0000  0.134005 14.631863 15.302582
394   1 0.0000  0.134005 14.631863 22.953874
395   1 0.0000  0.134005 14.631863 30.605165
396   1 0.0000  0.134005 19.464483 -0.000000
397   1 0.0000  0.134005 19.464483  7.651291
398   1 0.0000  0.134005 19.464483 15.302582
399   1 0.0000  0.134005 19.464483 22.953874
400   1 0.0000  0.134005 19.464483 30.605165
401   1 0.0000  4.966624  0.134005  0.000000
402   1 0.0000  4.966624  0.134005  7.651291
403   1 0.0000  4.966624  0.134005 15.302582
404   1 0.0000  4.966624  0.134005 22.953874
405   1 0.0000  4.966624  0.134005 30.605165
406   1 0.0000  4.966624  4.966624  0.000000
407   1 0.0000  4.966624  4.966624  7.651291
408   1 0.0000  4.966624  4.966624 15.302582
409   1 0.0000  4.966624  4.966624 22.953874
410   1 0.0000  4.966624  4.966624 30.605165
411   1 0.0000  4.966624  9.799244 -0.000000
412   1 0.0000  4.966624  9.799244  7.651291
413   1 0.0000  4.966624  9.799244 15.302582
414   1 0.0000  4.966624  9.799244 22.953874
415   1 0.0000  4.966624  9.799244 30.605165
416   1 0.0000  4.966624 14.631863 -0.000000
417   1 0.0000  4.966624 14.631863  7.651291
418   1 0.0000  4.966624 14.631863 15.302582
419   1 0.0000  4.966624 14.631863 22.953874
420   1 0.0000  4.966624 14.631863 30.605165
421   1 0.0000  4.966624 19.464483 -0.000000
422   1 0.0000  4.966624 19.464483  7.651291
423   1 0.0000  4.966624 19.464483 15.302582
424   1 0.0000  4.966624 19.464483 22.953874
425   1 0.0000  4.966624 19.464483 30.605165
426   1 0.0000  9.799244  0.134005  0.000000
427   1 0.0000  9.799244  0.134005  7.651291
428   1 0.0000  9.799244  0.134005 15.302582
429   1 0.0000  9.799244  0.134005 22.953874
430   1 0.0000  9.799244  0.134005 30.605165
431   1 0.0000  9.799244  4.966624  0.000000
432   1 0.0000  9.799244  4.966624  7.651291
433   1 0.0000  9.799244  4.966624 15.302582
434   1 0.0000  9.799244  4.966624 22.953874
435   1 0.0000  9.799244  4.966624 30.605165
436   1 0.0000  9.799244  9.799244  0.000000
437   1 0.0000  9.799244  9.799244  7.651291
438   1 0.0000  9.799244  9.799244 15.302582
439   1 0.0000  9.799244  9.799244 22.953874
440   1 0.0000  9.799244  9.799244 30.605165
441   1 0.0000  9.799244 14.631863  0.000000
442   1 0.0000  9.799244 14.631863  7.651291
443   1 0.0000  9.799244 14.631863 15.302582
444   1 0.0000  9.799244 14.631863 22.953874
445   1 0.0000  9.799244 14.631863 30.605165
446   1 0.0000  9.799244 19.464483 -0.000000
447   1 0.0000  9.799244 19.464483  7.651291
448   1 0.0000  9.799244 19.464483 15.302582
449   1 0.0000  9.799244 19.464483 22.953874
450   1 0.0000  9.799244 19.464483 30.605165
451   1 0.0000 14.631863  0.134005  0.000000
452   1 0.0000 14.631863  0.134005  7.651291
453   1 0.0000 14.631863  0.134005 15.302582
454   1 0.0000 14.631863  0.134005 22.953874
455   1 0.0000 14.631863  0.134005 30.605165
456   1 0.0000 14.631863  4.966624  0.000000
457   1 0.0000 14.631863  4.966624  7.651291
458   1 0.0000 14.631863  4.966624 15.302582
459   1 0.0000 14.631863  4.966624 22.953874
460   1 0.0000 14.631863  4.966624 30.605165
461   1 0.0000 14.631863  9.799244  0.000000
462   1 0.0000 14.631863  9.799244  7.651291
463   1 0.0000 14.631863  9.799244 15.302582
464   1 0.0000 14.631863  9.799244 22.953874
465   1 0.0000 14.631863  9.799244 30.605165
466   1 0.0000 14.631863 14.631863  0.000000
467   1 0.0000 14.631863 14.631863  7.651291
468   1 0.0000 14.631863 14.631863 15.302582
469   1 0.0000 14.631863 14.631863 22.953874
470   1 0.0000 14.631863 14.631863 30.605165
471   1 0.0000 14.631863 19.464483  0.000000
472   1 0.0000 14.631863 19.464483  7.651291
473   1 0.0000 14.631863 19.464483 15.302582
474   1 0.0000 14.631863 19.464483 22.953874
475   1 0.0000 14.631863 19.464483 30.605165
476   1 0.0000 19.464483  0.134005  0.000000
477   1 0.0000 19.464483  0.134005  7.651291
478   1 0.0000 19.464483  0.134005 15.302582
479   1 0.0000 19.464483  0.134005 22.953874
480   1 0.0000 19.464483  0.134005 30.605165
481   1 0.0000 19.464483  4.966624  0.000000
482   1 0.0000 19.464483  4.966624  7.651291
483   1 0.0000 19.464483  4.966624 15.302582
484   1 0.0000 19.464483  4.966624 22.953874
485   1 0.0000 19.464483  4.966624 30.605165
486   1 0.0000 19.464483  9.799244  0.000000
487   1 0.0000 19.464483  9.799244  7.651291
488   1 0.0000 19.464483  9.799244 15.302582
489   1 0.0000 19.464483  9.799244 22.953874
490   1 0.0000 19.464483  9.799244 30.605165
491   1 0.0000 19.464483 14.631863  0.000000
492   1 0.0000 19.464483 14.631863  7.651291
493   1 0.0000 19.464483 14.631863 15.302582
494   1 0.0000 19.464483 14.631863 22.953874
495   1 0.0000 19.464483 14.631863 30.605165
496   1 0.0000 19.464483 19.464483  0.000000
497   1 0.0000 19.464483 19.464483  7.651291
498   1 0.0000 19.464483 19.464483 15.302582
499   1 0.0000 19.464483 19.464483 22.953874
500   1 0.0000 19.464483 19.464483 30.605165
501   2 0.0000  3.575111  4.159639  2.411102
502   2 0.0000  3.575111  4.159639 10.062393
503   2 0.0000  3.575111  4.159639 17.713684
504   2 0.0000  3.575111  4.159639 25.364975
505   2 0.0000  3.575111  4.159639 33.016266
506   2 0.0000  3.575111  8.992259  2.411102
507   2 0.0000  3.575111  8.992259 10.062393
508   2 0.0000  3.575111  8.992259 17.713684
509   2 0.0000  3.575111  8.992259 25.364975
510   2 0.0000  3.575111  8.992259 33.016266
511   2 0.0000  3.575111 13.824878  2.411102
512   2 0.0000  3.575111 13.824878 10.062393
513   2 0.0000  3.575111 13.824878 17.713684
514   2 0.0000  3.575111 13.824878 25.364975
515   2 0.0000  3.575111 13.824878 33.016266
516   2 0.0000  3.575111 18.657498  2.411102
517   2 0.0000  3.575111 18.657498 10.062393
518   2 0.0000  3.575111 18.657498 17.713684
519   2 0.0000  3.575111 18.657498 25.364975
520   2 0.0000  3.575111 18.657498 33.016266
521   2 0.0000  3.575111 23.490117  2.411102
522   2 0.0000  3.575111 23.490117 10.062393
523   2 0.0000  3.575111 23.490117 17.713684
524   2 0.0000  3.575111 23.490117 25.364975
525   2 0.0000  3.575111 23.490117 33.016266
526   2 0.0000  8.407730  4.159639  2.411102
527   2 0.0000  8.407730  4.159639 10.062393
528   2 0.0000  8.407730  4.159639 17.713684
529   2 0.0000  8.407730  4.159639 25.364975
530   2 0.0000  8.407730  4.159639 33.016266
531   2 0.0000  8.407730  8.992259  2.411102
532   2 0.0000  8.407730  8.992259 10.062393
533   2 0.0000  8.407730  8.992259 17.713684
534   2 0.0000  8.407730  8.992259 25.364975
535   2 0.0000  8.407730  8.992259 33.016266
536   2 0.0000  8.407730 13.824878  2.411102
537   2 0.0000  8.407730 13.824878 10.062393
538   2 0.0000  8.407730 13.824878 17.713684
539   2 0.0000  8.407730 13.824878 25.364975
540   2 0.0000  8.407730 13.824878 33.016266
541   2 0.0000  8.407730 18.657498  2.411102
542   2 0.0000  8.407730 18.657498 10.062393
543   2 0.0000  8.407730 18.657498 17.713684
544   2 0.0000  8.407730 18.657498 25.364975
545   2 0.0000  8.407730 18.657498 33.016266
546   2 0.0000  8.407730 23.490117  2.411102
547   2 0.0000  8.407730 23.490117 10.062393
548   2 0.0000  8.407730 23.490117 17.713684
549   2 0.0000  8.407730 23.490117 25.364975
550   2 0.0000  8.407730 23.490117 33.016266
551   2 0.0000 13.240350  4.159639  2.411102
552   2 0.0000 13.240350  4.159639 10.062393
553   2 0.0000 13.240350  4.159639 17.713684
554   2 0.0000 13.240350  4.159639 25.364975
555   2 0.0000 13.240350  4.159639 33.016266
556   2 0.0000 13.240350  8.992259  2.411102
557   2 0.0000 13.240350  8.992259 10.062393
558   2 0.0000 13.240350  8.992259 17.713684
559   2 0.0000 13.240350  8.992259 25.364975
560   2 0.0000 13.240350  8.992259 33.016266
561   2 0.0000 13.240350 13.824878  2.411102
562   2 0.0000 13.240350 13.824878 10.062393
563   2 0.0000 13.240350 13.824878 17.713684
564   2 0.0000 13.240350 13.824878 25.364975
565   2 0.0000 13.240350 13.824878 33.016266
566   2 0.0000 13.240350 18.657498  2.411102
567   2 0.0000 13.240350 18.657498 10.062393
568   2 0.0000 13.240350 18.657498 17.713684
569   2 0.0000 13.240350 18.657498 25.364975
570   2 0.0000 13.240350 18.657498 33.016266
571   2 0.0000 13.240350 23.490117  2.411102
572   2 0.0000 13.240350 23.490117 10.062393
573   2 0.0000 13.240350 23.490117 17.713684
574   2 0.0000 13.240350 23.490117 25.364975
575   2 0.0000 13.240350 23.490117 33.016266
576   2 0.0000 18.072969  4.159639  2.411102
577   2 0.0000 18.072969  4.159639 10.062393
578   2 0.0000 18.072969  4.159639 17.713684
579   2 0.0000 18.072969  4.159639 25.364975
580   2 0.0000 18.072969  4.159639 33.016266
581   2 0.0000 18.072969  8.992259  2.411102
582   2 0.0000 18.072969  8.992259 10.062393
583   2 0.0000 18.072969  8.992259 17.713684
584   2 0.0000 18.072969  8.992259 25.364975
585   2 0.0000 18.072969  8.992259 33.016266
586   2 0.0000 18.072969 13.824878  2.411102
587   2 0.0000 18.072969 13.824878 10.062393
588   2 0.0000 18.072969 13.824878 17.713684
589   2 0.0000 18.072969 13.824878 25.364975
590   2 0.0000 18.072969 13.824878 33.016266
591   2 0.0000 18.072969 18.657498  2.411102
592   2 0.0000 18.072969 18.657498 10.062393
593   2 0.0000 18.072969 18.657498 17.713684
594   2 0.0000 18.072969 18.657498 25.364975
595   2 0.0000 18.072969 18.657498 33.016266
596   2 0.0000 18.072969 23.490117  2.411102
597   2 0.0000 18.072969 23.490117 10.062393
598   2 0.0000 18.072969 23.490117 17.713684
599   2 0.0000 18.072969 23.490117 25.364975
600   2 0.0000 18.072969 23.490117 33.016266
601   2 0.0000 22.905589  4.159639  2.411102
602   2 0.0000 22.905589  4.159639 10.062393
603   2 0.0000 22.905589  4.159639 17.713684
604   2 0.0000 22.905589  4.159639 25.364975
605   2 0.0000 22.905589  4.159639 33.016266
606   2 0.0000 22.905589  8.992259  2.411102
607   2 0.0000 22.905589  8.992259 10.062393
608   2 0.0000 22.905589  8.992259 17.713684
609   2 0.0000 22.905589  8.992259 25.364975
610   2 0.0000 22.905589  8.992259 33.016266
611   2 0.0000 22.905589 13.824878  2.411102
612   2 0.0000 22.905589 13.824878 10.062393
613   2 0.0000 22.905589 13.824878 17.713684
614   2 0.0000 22.905589 13.824878 25.364975
615   2 0.0000 22.905589 13.824878 33.016266
616   2 0.0000 22.905589 18.657498  2.411102
617   2 0.0000 22.905589 18.657498 10.062393
618   2 0.0000 22.905589 18.657498 17.713684
619   2 0.0000 22.905589 18.657498 25.364975
620   2 0.0000 22.905589 18.657498 33.016266
621   2 0.0000 22.905589 23.490117  2.411102
622   2 0.0000 22.905589 23.490117 10.062393
623   2 0.0000 22.905589 23.490117 17.713684
624   2 0.0000 22.905589 23.490117 25.364975
625   2 0.0000 22.905589 23.490117 33.016266
626   2 0.0000  1.257509  0.672980  6.236747
627   2 0.0000  1.257509  0.672980 13.888038
628   2 0.0000  1.257509  0.672980 21.539330
629   2 0.0000  1.257509  0.672980 29.190621
630   2 0.0000  1.257509  0.672980 36.841912
631   2 0.0000  1.257509  5.505600  6.236747
632   2 0.0000  1.257509  5.505600 13.888038
633   2 0.0000  1.257509  5.505600 21.539330
634   2 0.0000  1.257509  5.505600 29.190621
635   2 0.0000  1.257509  5.505600 36.841912
636   2 0.0000  1.257509 10.338219  6.236747
637   2 0.0000  1.257509 10.338219 13.888038
638   2 0.0000  1.257509 10.338219 21.539330
639   2 0.0000  1.257509 10.338219 29.190621
640   2 0.0000  1.257509 10.338219 36.841912
641   2 0.0000  1.257509 15.170839  6.236747
642   2 0.0000  1.257509 15.170839 13.888038
643   2 0.0000  1.257509 15.170839 21.539330
644   2 0.0000  1.257509 15.170839 29.190621
645   2 0.0000  1.257509 15.170839 36.841912
646   2 0.0000  1.257509 20.003458  6.236747
647   2 0.0000  1.257509 20.003458 13.888038
648   2 0.0000  1.257509 20.003458 21.539330
649   2 0.0000  1.257509 20.003458 29.190621
650   2 0.0000  1.257509 20.003458 36.841912
651   2 0.0000  6.090128  0.672980  6.236747
652   2 0.0000  6.090128  0.672980 13.888038
653   2 0.0000  6.090128  0.672980 21.539330
654   2 0.0000  6.090128  0.672980 29.190621
655   2 0.0000  6.090128  0.672980 36.841912
656   2 0.0000  6.090128  5.505600  6.236747
657   2 0.0000  6.090128  5.505600 13.888038
658   2 0.0000  6.090128  5.505600 21.539330
659   2 0.0000  6.090128  5.505600 29.190621
660   2 0.0000  6.090128  5.505600 36.841912
661   2 0.0000  6.090128 10.338219  6.236747
662   2 0.0000  6.090128 10.338219 13.888038
663   2 0.0000  6.090128 10.338219 21.539330
664   2 0.0000  6.090128 10.338219 29.190621
665   2 0.0000  6.090128 10.338219 36.841912
666   2 0.0000  6.090128 15.170839  6.236747
667   2 0.0000  6.090128 15.170839 13.888038
668   2 0.0000  6.090128 15.170839 21.539330
669   2 0.0000  6.090128 15.170839 29.190621
670   2 0.0000  6.090128 15.170839 36.841912
671   2 0.0000  6.090128 20.003458  6.236747
672   2 0.0000  6.090128 20.003458 13.888038
673   2 0.0000  6.090128 20.003458 21.539330
674   2 0.0000  6.090128 20.003458 29.190621
675   2 0.0000  6.090128 20.003458 36.841912
676   2 0.0000 10.922748  0.672980  6.236747
677   2 0.0000 10.922748  0.672980 13.888038
678   2 0.0000 10.922748  0.672980 21.539330
679   2 0.0000 10.922748  0.672980 29.190621
680   2 0.0000 10.922748  0.672980 36.841912
681   2 0.0000 10.922748  5.505600  6.236747
682   2 0.0000 10.922748  5.505600 13.888038
683   2 0.0000 10.922748  5.505600 21.539330
684   2 0.0000 10.922748  5.505600 29.190621
685   2 0.0000 10.922748  5.505600 36.841912
686   2 0.0000 10.922748 10.338219  6.236747
687   2 0.0000 10.922748 10.338219 13.888038
688   2 0.0000 10.922748 10.338219 21.539330
689   2 0.0000 10.922748 10.338219 29.190621
690   2 0.0000 10.922748 10.338219 36.841912
691   2 0.0000 10.922748 15.170839  6.236747
692   2 0.0000 10.922748 15.170839 13.888038
693   2 0.0000 10.922748 15.170839 21.539330
694   2 0.0000 10.922748 15.170839 29.190621
695   2 0.0000 10.922748 15.170839 36.841912
696   2 0.0000 10.922748 20.003458  6.236747
697   2 0.0000 10.922748 20.003458 13.888038
698   2 0.0000 10.922748 20.003458 21.539330
699   2 0.0000 10.922748 20.003458 29.190621
700   2 0.0000 10.922748 20.003458 36.841912
701   2 0.0000 15.755367  0.672980  6.236747
702   2 0.0000 15.755367  0.672980 13.888038
703   2 0.0000 15.755367  0.672980 21.539330
704   2 0.0000 15.755367  0.672980 29.190621
705   2 0.0000 15.755367  0.672980 36.841912
706   2 0.0000 15.755367  5.505600  6.236747
707   2 0.0000 15.755367  5.505600 13.888038
708   2 0.0000 15.755367  5.505600 21.539330
709   2 0.0000 15.755367  5.505600 29.190621
710   2 0.0000 15.755367  5.505600 36.841912
711   2 0.0000 15.755367 10.338219  6.236747
712   2 0.0000 15.755367 10.338219 13.888038
713   2 0.0000 15.755367 10.338219 21.539330
714   2 0.0000 15.755367 10.338219 29.190621
715   2 0.0000 15.755367 10.338219 36.841912
716   2 0.0000 15.755367 15.170839  6.236747
717   2 0.0000 15.755367 15.170839 13.888038
718   2 0.0000 15.755367 15.170839 21.539330
719   2 0.0000 15.755367 15.170839 29.190621
720   2 0.0000 15.755367 15.170839 36.841912
721   2 0.0000 15.755367 20.003458  6.236747
722   2 0.0000 15.755367 20.003458 13.888038
723   2 0.0000 15.755367 20.003458 21.539330
724   2 0.0000 15.755367 20.003458 29.190621
725   2 0.0000 15.755367 20.003458 36.841912
726   2 0.0000 20.587987  0.672980  6.236747
727   2 0.0000 20.587987  0.672980 13.888038
728   2 0.0000 20.587987  0.672980 21.539330
729   2 0.0000 20.587987  0.672980 29.190621
730   2 0.0000 20.587987  0.672980 36.841912
731   2 0.0000 20.587987  5.505600  6.236747
732   2 0.0000 20.587987  5.505600 13.888038
733   2 0.0000 20.587987  5.505600 21.539330
734   2 0.0000 20.587987  5.505600 29.190621
735   2 0.0000 20.587987  5.505600 36.841912
736   2 0.0000 20.587987 10.338219  6.236747
737   2 0.0000 20.587987 10.338219 13.888038
738   2 0.0000 20.587987 10.338219 21.539330
739   2 0.0000 20.587987 10.338219 29.190621
740   2 0.0000 20.587987 10.338219 36.841912
741   2 0.0000 20.587987 15.170839  6.236747
742   2 0.0000 20.587987 15.170839 13.888038
743   2 0.0000 20.587987 15.170839 21.539330
744   2 0.0000 20.587987 15.170839 29.190621
745   2 0.0000 20.587987 15.170839 36.841912
746   2 0.0000 20.587987 20.003458  6.236747
747   2 0.0000 20.587987 20.003458 13.888038
748   2 0.0000 20.587987 20.003458 21.539330
749   2 0.0000 20.587987 20.003458 29.190621
750   2 0.0000 20.587987 20.003458 36.841912
751   2 0.0000  4.159639  3.575111  5.240190
752   2 0.0000  4.159639  3.575111 12.891481
753   2 0.0000  4.159639  3.575111 20.542772
754   2 0.0000  4.159639  3.575111 28.194063
755   2 0.0000  4.159639  3.575111 35.845355
756   2 0.0000  4.159639  8.407730  5.240190
757   2 0.0000  4.159639  8.407730 12.891481
758   2 0.0000  4.159639  8.407730 20.542772
759   2 0.0000  4.159639  8.407730 28.194063
760   2 0.0000  4.159639  8.407730 35.845355
761   2 0.0000  4.159639 13.240350  5.240190
762   2 0.0000  4.159639 13.240350 12.891481
763   2 0.0000  4.159639 13.240350 20.542772
764   2 0.0000  4.159639 13.240350 28.194063
765   2 0.0000  4.159639 13.240350 35.845355
766   2 0.0000  4.159639 18.072969  5.240190
767   2 0.0000  4.159639 18.072969 12.891481
768   2 0.0000  4.159639 18.072969 20.542772
769   2 0.0000  4.159639 18.072969 28.194063
770   2 0.0000  4.159639 18.072969 35.845355
771   2 0.0000  4.159639 22.905589  5.240190
772   2 0.0000  4.159639 22.905589 12.891481
773   2 0.0000  4.159639 22.905589 20.542772
774   2 0.0000  4.159639 22.905589 28.194063
775   2 0.0000  4.159639 22.905589 35.845355
776   2 0.0000  8.992259  3.575111  5.240190
777   2 0.0000  8.992259  3.575111 12.891481
778   2 0.0000  8.992259  3.575111 20.542772
779   2 0.0000  8.992259  3.575111 28.194063
780   2 0.0000  8.992259  3.575111 35.845355
781   2 0.0000  8.992259  8.407730  5.240190
782   2 0.0000  8.992259  8.407730 12.891481
783   2 0.0000  8.992259  8.407730 20.542772
784   2 0.0000  8.992259  8.407730 28.194063
785   2 0.0000  8.992259  8.407730 35.845355
786   2 0.0000  8.992259 13.240350  5.240190
787   2 0.0000  8.992259 13.240350 12.891481
788   2 0.0000  8.992259 13.240350 20.542772
789   2 0.0000  8.992259 13.240350 28.194063
790   2 0.0000  8.992259 13.240350 35.845355
791   2 0.0000  8.992259 18.072969  5.240190
792   2 0.0000  8.992259 18.072969 12.891481
793   2 0.0000  8.992259 18.072969 20.542772
794   2 0.0000  8.992259 18.072969 28.194063
795   2 0.0000  8.992259 18.072969 35.845355
796   2 0.0000  8.992259 22.905589  5.240190
797   2 0.0000  8.992259 22.905589 12.891481
798   2 0.0000  8.992259 22.905589 20.542772
799   2 0.0000  8.992259 22.905589 28.194063
800   2 0.0000  8.992259 22.905589 35.845355
801   2 0.0000 13.824878  3.575111  5.240190
802   2 0.0000 13.824878  3.575111 12.891481
803   2 0.0000 13.824878  3.575111 20.542772
804   2 0.0000 13.824878  3.575111 28.194063
805   2 0.0000 13.824878  3.575111 35.845355
806   2 0.0000 13.824878  8.407730  5.240190
807   2 0.0000 13.824878  8.407730 12.891481
808   2 0.0000 13.824878  8.407730 20.542772
809   2 0.0000 13.824878  8.407730 28.194063
810   2 0.0000 13.824878  8.407730 35.845355
811   2 0.0000 13.824878 13.240350  5.240190
812   2 0.0000 13.824878 13.240350 12.891481
813   2 0.0000 13.824878 13.240350 20.542772
814   2 0.0000 13.824878 13.240350 28.194063
815   2 0.0000 13.824878 13.240350 35.845355
816   2 0.0000 13.824878 18.072969  5.240190
817   2 0.0000 13.824878 18.072969 12.891481
818   2 0.0000 13.824878 18.072969 20.542772
819   2 0.0000 13.824878 18.072969 28.194063
820   2 0.0000 13.824878 18.072969 35.845355
821   2 0.0000 13.824878 22.905589  5.240190
822   2 0.0000 13.824878 22.905589 12.891481
823   2 0.0000 13.824878 22.905589 20.542772
824   2 0.0000 13.824878 22.905589 28.194063
825   2 0.0000 13.824878 22.905589 35.845355
826   2 0.0000 18.657498  3.575111  5.240190
827   2 0.0000 18.657498  3.575111 12.891481
828   2 0.0000 18.657498  3.575111 20.542772
829   2 0.0000 18.657498  3.575111 28.194063
830   2 0.0000 18.657498  3.575111 35.845355
831   2 0.0000 18.657498  8.407730  5.240190
832   2 0.0000 18.657498  8.407730 12.891481
833   2 0.0000 18.657498  8.407730 20.542772
834   2 0.0000 18.657498  8.407730 28.194063
835   2 0.0000 18.657498  8.407730 35.845355
836   2 0.0000 18.657498 13.240350  5.240190
837   2 0.0000 18.657498 13.240350 12.891481
838   2 0.0000 18.657498 13.240350 20.542772
839   2 0.0000 18.657498 13.240350 28.194063
840   2 0.0000 18.657498 13.240350 35.845355
841   2 0.0000 18.657498 18.072969  5.240190
842   2 0.0000 18.657498 18.072969 12.891481
843   2 0.0000 18.657498 18.072969 20.542772
844   2 0.0000 18.657498 18.072969 28.194063
845   2 0.0000 18.657498 18.072969 35.845355
846   2 0.0000 18.657498 22.905589  5.240190
847   2 0.0000 18.657498 22.905589 12.891481
848   2 0.0000 18.657498 22.905589 20.542772
849   2 0.0000 18.657498 22.905589 28.194063
850   2 0.0000 18.657498 22.905589 35.845355
851   2 0.0000 23.490117  3.575111  5.240190
852   2 0.0000 23.490117  3.575111 12.891481
853   2 0.0000 23.490117  3.575111 20.542772
854   2 0.0000 23.490117  3.575111 28.194063
855   2 0.0000 23.490117  3.575111 35.845355
856   2 0.0000 23.490117  8.407730  5.240190
857   2 0.0000 23.490117  8.407730 12.891481
858   2 0.0000 23.490117  8.407730 20.542772
859   2 0.0000 23.490117  8.407730 28.194063
860   2 0.0000 23.490117  8.407730 35.845355
861   2 0.0000 23.490117 13.240350  5.240190
862   2 0.0000 23.490117 13.240350 12.891481
863   2 0.0000 23.490117 13.240350 20.542772
864   2 0.0000 23.490117 13.240350 28.194063
865   2 0.0000 23.490117 13.240350 35.845355
866   2 0.0000 23.490117 18.072969  5.240190
867   2 0.0000 23.490117 18.072969 12.891481
868   2 0.0000 23.490117 18.072969 20.542772
869   2 0.0000 23.490117 18.072969 28.194063
870   2 0.0000 23.490117 18.072969 35.845355
871   2 0.0000 23.490117 22.905589  5.240190
872   2 0.0000 23.490117 22.905589 12.891481
873   2 0.0000 23.490117 22.905589 20.542772
874   2 0.0000 23.490117 22.905589 28.194063
875   2 0.0000 23.490117 22.905589 35.845355
876   2 0.0000  1.743330  3.673818  0.498279
877   2 0.0000  1.743330  3.673818  8.149570
878   2 0.0000  1.743330  3.673818 15.800861
879   2 0.0000  1.743330  3.673818 23.452152
880   2 0.0000  1.743330  3.673818 31.103444
881   2 0.0000  1.743330  8.506438  0.498279
882   2 0.0000  1.743330  8.506438  8.149570
883   2 0.0000  1.743330  8.506438 15.800861
884   2 0.0000  1.743330  8.506438 23.452152
885   2 0.0000  1.743330  8.506438 31.103444
886   2 0.0000  1.743330 13.339057  0.498279
887   2 0.0000  1.743330 13.339057  8.149570
888   2 0.0000  1.743330 13.339057 15.800861
889   2 0.0000  1.743330 13.339057 23.452152
890   2 0.0000  1.743330 13.339057 31.103444
891   2 0.0000  1.743330 18.171677  0.498279
892   2 0.0000  1.743330 18.171677  8.149570
893   2 0.0000  1.743330 18.171677 15.800861
894   2 0.0000  1.743330 18.171677 23.452152
895   2 0.0000  1.743330 18.171677 31.103444
896   2 0.0000  1.743330 23.004297  0.498279
897   2 0.0000  1.743330 23.004297  8.149570
898   2 0.0000  1.743330 23.004297 15.800861
899   2 0.0000  1.743330 23.004297 23.452152
900   2 0.0000  1.743330 23.004297 31.103444
901   2 0.0000  6.575949  3.673818  0.498279
902   2 0.0000  6.575949  3.673818  8.149570
903   2 0.0000  6.575949  3.673818 15.800861
904   2 0.0000  6.575949  3.673818 23.452152
905   2 0.0000  6.575949  3.673818 31.103444
906   2 0.0000  6.575949  8.506438  0.498279
907   2 0.0000  6.575949  8.506438  8.149570
908   2 0.0000  6.575949  8.506438 15.800861
909   2 0.0000  6.575949  8.506438 23.452152
910   2 0.0000  6.575949  8.506438 31.103444
911   2 0.0000  6.575949 13.339057  0.498279
912   2 0.0000  6.575949 13.339057  8.149570
913   2 0.0000  6.575949 13.339057 15.800861
914   2 0.0000  6.575949 13.339057 23.452152
915   2 0.0000  6.575949 13.339057 31.103444
916   2 0.0000  6.575949 18.171677  0.498279
917   2 0.0000  6.575949 18.171677  8.149570
918   2 0.0000  6.575949 18.171677 15.800861
919   2 0.0000  6.575949 18.171677 23.452152
920   2 0.0000  6.575949 18.171677 31.103444
921   2 0.0000  6.575949 23.004297  0.498279
922   2 0.0000  6.575949 23.004297  8.149570
923   2 0.0000  6.575949 23.004297 15.800861
924   2 0.0000  6.575949 23.004297 23.452152
925   2 0.0000  6.575949 23.004297 31.103444
926   2 0.0000 11.408569  3.673818  0.498279
927   2 0.0000 11.408569  3.673818  8.149570
928   2 0.0000 11.408569  3.673818 15.800861
929   2 0.0000 11.408569  3.673818 23.452152
930   2 0.0000 11.408569  3.673818 31.103444
931   2 0.0000 11.408569  8.506438  0.498279
932   2 0.0000 11.408569  8.506438  8.149570
933   2 0.0000 11.408569  8.506438 15.800861
934   2 0.0000 11.408569  8.506438 23.452152
935   2 0.0000 11.408569  8.506438 31.103444
936   2 0.0000 11.408569 13.339057  0.498279
937   2 0.0000 11.408569 13.339057  8.149570
938   2 0.0000 11.408569 13.339057 15.800861
939   2 0.0000 11.408569 13.339057 23.452152
940   2 0.0000 11.408569 13.339057 31.103444
941   2 0.0000 11.408569 18.171677  0.498279
942   2 0.0000 11.408569 18.171677  8.149570
943   2 0.0000 11.408569 18.171677 15.800861
944   2 0.0000 11.408569 18.171677 23.452152
945   2 0.0000 11.408569 18.171677 31.103444
946   2 0.0000 11.408569 23.004297  0.498279
947   2 0.0000 11.408569 23.004297  8.149570
948   2 0.0000 11.408569 23.004297 15.800861
949   2 0.0000 11.408569 23.004297 23.452152
950   2 0.0000 11.408569 23.004297 31.103444
951   2 0.0000 16.241188  3.673818  0.498279
952   2 0.0000 16.241188  3.673818  8.149570
953   2 0.0000 16.241188  3.673818 15.800861
954   2 0.0000 16.241188  3.673818 23.452152
955   2 0.0000 16.241188  3.673818 31.103444
956   2 0.0000 16.241188  8.506438  0.498279
957   2 0.0000 16.241188  8.506438  8.149570
958   2 0.0000 16.241188  8.506438 15.800861
959   2 0.0000 16.241188  8.506438 23.452152
960   2 0.0000 16.241188  8.506438 31.103444
961   2 0.0000 16.241188 13.339057  0.498279
962   2 0.0000 16.241188 13.339057  8.149570
963   2 0.0000 16.241188 13.339057 15.800861
964   2 0.0000 16.241188 13.339057 23.452152
965   2 0.0000 16.241188 13.339057 31.103444
966   2 0.0000 16.241188 18.171677  0.498279
967   2 0.0000 16.241188 18.171677  8.149570
968   2 0.0000 16.241188 18.171677 15.800861
969   2 0.0000 16.241188 18.171677 23.452152
970   2 0.0000 16.241188 18.171677 31.103444
971   2 0.0000 16.241188 23.004297  0.498279
972   2 0.0000 16.241188 23.004297  8.149570
973   2 0.0000 16.241188 23.004297 15.800861
974   2 0.0000 16.241188 23.004297 23.452152
975   2 0.0000 16.241188 23.004297 31.103444
976   2 0.0000 21.073808  3.673818  0.498279
977   2 0.0000 21.073808  3.673818  8.149570
978   2 0.0000 21.073808  3.673818 15.800861
979   2 0.0000 21.073808  3.673818 23.452152
980   2 0.0000 21.073808  3.673818 31.103444
981   2 0.0000 21.073808  8.506438  0.498279
982   2 0.0000 21.073808  8.506438  8.149570
983   2 0.0000 21.073808  8.506438 15.800861
984   2 0.0000 21.073808  8.506438 23.452152
985   2 0.0000 21.073808  8.506438 31.103444
986   2 0.0000 21.073808 13.339057  0.498279
987   2 0.0000 21.073808 13.339057  8.149570
988   2 0.0000 21.073808 13.339057 15.800861
989   2 0.0000 21.073808 13.339057 23.452152
990   2 0.0000 21.073808 13.339057 31.103444
991   2 0.0000 21.073808 18.171677  0.498279
992   2 0.0000 21.073808 18.171677  8.149570
993   2 0.0000 21.073808 18.171677 15.800861
994   2 0.0000 21.073808 18.171677 23.452152
995   2 0.0000 21.073808 18.171677 31.103444
996   2 0.0000 21.073808 23.004297  0.498279
997   2 0.0000 21.073808 23.004297  8.149570
998   2 0.0000 21.073808 23.004297 15.800861
999   2 0.0000 21.073808 23.004297 23.452152
1000  2 0.0000 21.073808 23.004297 31.103444
1001  2 0.0000  0.672980  1.257509  1.414544
1002  2 0.0000  0.672980  1.257509  9.065835
1003  2 0.0000  0.672980  1.257509 16.717126
1004  2 0.0000  0.672980  1.257509 24.368418
1005  2 0.0000  0.672980  1.257509 32.019709
1006  2 0.0000  0.672980  6.090128  1.414544
1007  2 0.0000  0.672980  6.090128  9.065835
1008  2 0.0000  0.672980  6.090128 16.717126
1009  2 0.0000  0.672980  6.090128 24.368418
1010  2 0.0000  0.672980  6.090128 32.019709
1011  2 0.0000  0.672980 10.922748  1.414544
1012  2 0.0000  0.672980 10.922748  9.065835
1013  2 0.0000  0.672980 10.922748 16.717126
1014  2 0.0000  0.672980 10.922748 24.368418
1015  2 0.0000  0.672980 10.922748 32.019709
1016  2 0.0000  0.672980 15.755367  1.414544
1017  2 0.0000  0.672980 15.755367  9.065835
1018  2 0.0000  0.672980 15.755367 16.717126
1019  2 0.0000  0.672980 15.755367 24.368418
1020  2 0.0000  0.672980 15.755367 32.019709
1021  2 0.0000  0.672980 20.587987  1.414544
1022  2 0.0000  0.672980 20.587987  9.065835
1023  2 0.0000  0.672980 20.587987 16.717126
1024  2 0.0000  0.672980 20.587987 24.368418
1025  2 0.0000  0.672980 20.587987 32.019709
1026  2 0.0000  5.505600  1.257509  1.414544
1027  2 0.0000  5.505600  1.257509  9.065835
1028  2 0.0000  5.505600  1.257509 16.717126
1029  2 0.0000  5.505600  1.257509 24.368418
1030  2 0.0000  5.505600  1.257509 32.019709
1031  2 0.0000  5.505600  6.090128  1.414544
1032  2 0.0000  5.505600  6.090128  9.065835
1033  2 0.0000  5.505600  6.090128 16.717126
1034  2 0.0000  5.505600  6.090128 24.368418
1035  2 0.0000  5.505600  6.090128 32.019709
1036  2 0.0000  5.505600 10.922748  1.414544
1037  2 0.0000  5.505600 10.922748  9.065835
1038  2 0.0000  5.505600 10.922748 16.717126
1039  2 0.0000  5.505600 10.922748 24.368418
1040  2 0.0000  5.505600 10.922748 32.019709
1041  2 0.0000  5.505600 15.755367  1.414544
1042  2 0.0000  5.505600 15.755367  9.065835
1043  2 0.0000  5.505600 15.755367 16.717126
1044  2 0.0000  5.505600 15.755367 24.368418
1045  2 0.0000  5.505600 15.755367 32.019709
1046  2 0.0000  5.505600 20.587987  1.414544
1047  2 0.0000  5.505600 20.587987  9.065835
1048  2 0.0000  5.505600 20.587987 16.717126
1049  2 0.0000  5.505600 20.587987 24.368418
1050  2 0.0000  5.505600 20.587987 32.019709
1051  2 0.0000 10.338219  1.257509  1.414544
1052  2 0.0000 10.338219  1.257509  9.065835
1053  2 0.0000 10.338219  1.257509 16.717126
1054  2 0.0000 10.338219  1.257509 24.368418
1055  2 0.0000 10.338219  1.257509 32.019709
1056  2 0.0000 10.338219  6.090128  1.414544
1057  2 0.0000 10.338219  6.090128  9.065835
1058  2 0.0000 10.338219  6.090128 16.717126
1059  2 0.0000 10.338219  6.090128 24.368418
1060  2 0.0000 10.338219  6.090128 32.019709
1061  2 0.0000 10.338219 10.922748  1.414544
1062  2 0.0000 10.338219 10.922748  9.065835
1063  2 0.0000 10.338219 10.922748 16.717126
1064  2 0.0000 10.338219 10.922748 24.368418
1065  2 0.0000 10.338219 10.922748 32.019709
1066  2 0.0000 10.338219 15.755367  1.414544
1067  2 0.0000 10.338219 15.755367  9.065835
1068  2 0.0000 10.338219 15.755367 16.717126
1069  2 0.0000 10.338219 15.755367 24.368418
1070  2 0.0000 10.338219 15.755367 32.019709
1071  2 0.0000 10.338219 20.587987  1.414544
1072  2 0.0000 10.338219 20.587987  9.065835
1073  2 0.0000 10.338219 20.587987 16.717126
1074  2 0.0000 10.338219 20.587987 24.368418
1075  2 0.0000 10.338219 20.587987 32.019709
1076  2 0.0000 15.170839  1.257509  1.414544
1077  2 0.0000 15.170839  1.257509  9.065835
1078  2 0.0000 15.170839  1.257509 16.717126
1079  2 0.0000 15.170839  1.257509 24.368418
1080  2 0.0000 15.170839  1.257509 32.019709
1081  2 0.0000 15.170839  6.090128  1.414544
1082  2 0.0000 15.170839  6.090128  9.065835
1083  2 0.0000 15.170839  6.090128 16.717126
1084  2 0.0000 15.170839  6.090128 24.368418
1085  2 0.0000 15.170839  6.090128 32.019709
1086  2 0.0000 15.170839 10.922748  1.414544
1087  2 0.0000 15.170839 10.922748  9.065835
1088  2 0.0000 15.170839 10.922748 16.717126
1089  2 0.0000 15.170839 10.922748 24.368418
1090  2 0.0000 15.170839 10.922748 32.019709
1091  2 0.0000 15.170839 15.755367  1.414544
1092  2 0.0000 15.170839 15.755367  9.065835
1093  2 0.0000 15.170839 15.755367 16.717126
1094  2 0.0000 15.170839 15.755367 24.368418
1095  2 0.0000 15.170839 15.755367 32.019709
1096  2 0.0000 15.170839 20.587987  1.414544
1097  2 0.0000 15.170839 20.587987  9.065835
1098  2 0.0000 15.170839 20.587987 16.717126
1099  2 0.0000 15.170839 20.587987 24.368418
1100  2 0.0000 15.170839 20.587987 32.019709
1101  2 0.0000 20.003458  1.257509  1.414544
1102  2 0.0000 20.003458  1.257509  9.065835
1103  2 0.0000 20.003458  1.257509 16.717126
1104  2 0.0000 20.003458  1.257509 24.368418
1105  2 0.0000 20.003458  1.257509 32.019709
1106  2 0.0000 20.003458  6.090128  1.414544
1107  2 0.0000 20.003458  6.090128  9.065835
1108  2 0.0000 20.003458  6.090128 16.717126
1109  2 0.0000 20.003458  6.090128 24.368418
1110  2 0.0000 20.003458  6.090128 32.019709
1111  2 0.0000 20.003458 10.922748  1.414544
1112  2 0.0000 20.003458 10.922748  9.065835
1113  2 0.0000 20.003458 10.922748 16.717126
1114  2 0.0000 20.003458 10.922748 24.368418
1115  2 0.0000 20.003458 10.922748 32.019709
1116  2 0.0000 20.003458 15.755367  1.414544
1117  2 0.0000 20.003458 15.755367  9.065835
1118  2 0.0000 20.003458 15.755367 16.717126
1119  2 0.0000 20.003458 15.755367 24.368418
1120  2 0.0000 20.003458 15.755367 32.019709
1121  2 0.0000 20.003458 20.587987  1.414544
1122  2 0.0000 20.003458 20.587987  9.065835
1123  2 0.0000 20.003458 20.587987 16.717126
1124  2 0.0000 20.003458 20.587987 24.368418
1125  2 0.0000 20.003458 20.587987 32.019709
1126  2 0.0000  1.158801  3.089290  3.327367
1127  2 0.0000  1.158801  3.089290 10.978658
1128  2 0.0000  1.158801  3.089290 18.629949
1129  2 0.0000  1.158801  3.089290 26.281240
1130  2 0.0000  1.158801  3.089290 33.932532
1131  2 0.0000  1.158801  7.921909  3.327367
1132  2 0.0000  1.158801  7.921909 10.978658
1133  2 0.0000  1.158801  7.921909 18.629949
1134  2 0.0000  1.158801  7.921909 26.281240
1135  2 0.0000  1.158801  7.921909 33.932532
1136  2 0.0000  1.158801 12.754529  3.327367
1137  2 0.0000  1.158801 12.754529 10.978658
1138  2 0.0000  1.158801 12.754529 18.629949
1139  2 0.0000  1.158801 12.754529 26.281240
1140  2 0.0000  1.158801 12.754529 33.932532
1141  2 0.0000  1.158801 17.587149  3.327367
1142  2 0.0000  1.158801 17.587149 10.978658
1143  2 0.0000  1.158801 17.587149 18.629949
1144  2 0.0000  1.158801 17.587149 26.281240
1145  2 0.0000  1.158801 17.587149 33.932532
1146  2 0.0000  1.158801 22.419768  3.327367
1147  2 0.0000  1.158801 22.419768 10.978658
1148  2 0.0000  1.158801 22.419768 18.629949
1149  2 0.0000  1.158801 22.419768 26.281240
1150  2 0.0000  1.158801 22.419768 33.932532
1151  2 0.0000  5.991421  3.089290  3.327367
1152  2 0.0000  5.991421  3.089290 10.978658
1153  2 0.0000  5.991421  3.089290 18.629949
1154  2 0.0000  5.991421  3.089290 26.281240
1155  2 0.0000  5.991421  3.089290 33.932532
1156  2 0.0000  5.991421  7.921909  3.327367
1157  2 0.0000  5.991421  7.921909 10.978658
1158  2 0.0000  5.991421  7.921909 18.629949
1159  2 0.0000  5.991421  7.921909 26.281240
1160  2 0.0000  5.991421  7.921909 33.932532
1161  2 0.0000  5.991421 12.754529  3.327367
1162  2 0.0000  5.991421 12.754529 10.978658
1163  2 0.0000  5.991421 12.754529 18.629949
1164  2 0.0000  5.991421 12.754529 26.281240
1165  2 0.0000  5.991421 12.754529 33.932532
1166  2 0.0000  5.991421 17.587149  3.327367
1167  2 0.0000  5.991421 17.587149 10.978658
1168  2 0.0000  5.991421 17.587149 18.629949
1169  2 0.0000  5.991421 17.587149 26.281240
1170  2 0.0000  5.991421 17.587149 33.932532
1171  2 0.0000  5.991421 22.419768  3.327367
1172  2 0.0000  5.991421 22.419768 10.978658
1173  2 0.0000  5.991421 22.419768 18.629949
1174  2 0.0000  5.991421 22.419768 26.281240
1175  2 0.0000  5.991421 22.419768 33.932532
1176  2 0.0000 10.824040  3.089290  3.327367
1177  2 0.0000 10.824040  3.089290 10.978658
1178  2 0.0000 10.824040  3.089290 18.629949
1179  2 0.0000 10.824040  3.089290 26.281240
1180  2 0.0000 10.824040  3.089290 33.932532
1181  2 0.0000 10.824040  7.921909  3.327367
1182  2 0.0000 10.824040  7.921909 10.978658
1183  2 0.0000 10.824040  7.921909 18.629949
1184  2 0.0000 10.824040  7.921909 26.281240
1185  2 0.0000 10.824040  7.921909 33.932532
1186  2 0.0000 10.824040 12.754529  3.327367
1187  2 0.0000 10.824040 12.754529 10.978658
1188  2 0.0000 10.824040 12.754529 18.629949
1189  2 0.0000 10.824040 12.754529 26.281240
1190  2 0.0000 10.824040 12.754529 33.932532
1191  2 0.0000 10.824040 17.587149  3.327367
1192  2 0.0000 10.824040 17.587149 10.978658
1193  2 0.0000 10.824040 17.587149 18.629949
1194  2 0.0000 10.824040 17.587149 26.281240
1195  2 0.0000 10.824040 17.587149 33.932532
1196  2 0.0000 10.824040 22.419768  3.327367
1197  2 0.0000 10.824040 22.419768 10.978658
1198  2 0.0000 10.824040 22.419768 18.629949
1199  2 0.0000 10.824040 22.419768 26.281240
1200  2 0.0000 10.824040 22.419768 33.932532
1201  2 0.0000 15.656660  3.089290  3.327367
1202  2 0.0000 15.656660  3.089290 10.978658
1203  2 0.0000 15.656660  3.089290 18.629949
1204  2 0.0000 15.656660  3.089290 26.281240
1205  2 0.0000 15.656660  3.089290 33.932532
1206  2 0.0000 15.656660  7.921909  3.327367
1207  2 0.0000 15.656660  7.921909 10.978658
1208  2 0.0000 15.656660  7.921909 18.629949
1209  2 0.0000 15.656660  7.921909 26.281240
1210  2 0.0000 15.656660  7.921909 33.932532
1211  2 0.0000 15.656660 12.754529  3.327367
1212  2 0.0000 15.656660 12.754529 10.978658
1213  2 0.0000 15.656660 12.754529 18.629949
1214  2 0.0000 15.656660 12.754529 26.281240
1215  2 0.0000 15.656660 12.754529 33.932532
1216  2 0.0000 15.656660 17.587149  3.327367
1217  2 0.0000 15.656660 17.587149 10.978658
1218  2 0.0000 15.656660 17.587149 18.629949
1219  2 0.0000 15.656660 17.587149 26.281240
1220  2 0.0000 15.656660 17.587149 33.932532
1221  2 0.0000 15.656660 22.419768  3.327367
1222  2 0.0000 15.656660 22.419768 10.978658
1223  2 0.0000 15.656660 22.419768 18.629949
1224  2 0.0000 15.656660 22.419768 26.281240
1225  2 0.0000 15.656660 22.419768 33.932532
1226  2 0.0000 20.489279  3.089290  3.327367
1227  2 0.0000 20.489279  3.089290 10.978658
1228  2 0.0000 20.489279  3.089290 18.629949
1229  2 0.0000 20.489279  3.089290 26.281240
1230  2 0.0000 20.489279  3.089290 33.932532
1231  2 0.0000 20.489279  7.921909  3.327367
1232  2 0.0000 20.489279  7.921909 10.978658
1233  2 0.0000 20.489279  7.921909 18.629949
1234  2 0.0000 20.489279  7.921909 26.281240
1235  2 0.0000 20.489279  7.921909 33.932532
1236  2 0.0000 20.489279 12.754529  3.327367
1237  2 0.0000 20.489279 12.754529 10.978658
1238  2 0.0000 20.489279 12.754529 18.629949
1239  2 0.0000 20.489279 12.754529 26.281240
1240  2 0.0000 20.489279 12.754529 33.932532
1241  2 0.0000 20.489279 17.587149  3.327367
1242  2 0.0000 20.489279 17.587149 10.978658
1243  2 0.0000 20.489279 17.587149 18.629949
1244  2 0.0000 20.489279 17.587149 26.281240
1245  2 0.0000 20.489279 17.587149 33.932532
1246  2 0.0000 20.489279 22.419768  3.327367
1247  2 0.0000 20.489279 22.419768 10.978658
1248  2 0.0000 20.489279 22.419768 18.629949
1249  2 0.0000 20.489279 22.419768 26.281240
1250  2 0.0000 20.489279 22.419768 33.932532
1251  2 0.0000  3.673818  1.743330  7.153012
1252  2 0.0000  3.673818  1.743330 14.804304
1253  2 0.0000  3.673818  1.743330 22.455595
1254  2 0.0000  3.673818  1.743330 30.106886
1255  2 0.0000  3.673818  1.743330 37.758177
1256  2 0.0000  3.673818  6.575949  7.153012
1257  2 0.0000  3.673818  6.575949 14.804304
1258  2 0.0000  3.673818  6.575949 22.455595
1259  2 0.0000  3.673818  6.575949 30.106886
1260  2 0.0000  3.673818  6.575949 37.758177
1261  2 0.0000  3.673818 11.408569  7.153012
1262  2 0.0000  3.673818 11.408569 14.804304
1263  2 0.0000  3.673818 11.408569 22.455595
1264  2 0.0000  3.673818 11.408569 30.106886
1265  2 0.0000  3.673818 11.408569 37.758177
1266  2 0.0000  3.673818 16.241188  7.153012
1267  2 0.0000  3.673818 16.241188 14.804304
1268  2 0.0000  3.673818 16.241188 22.455595
1269  2 0.0000  3.673818 16.241188 30.106886
1270  2 0.0000  3.673818 16.241188 37.758177
1271  2 0.0000  3.673818 21.073808  7.153012
1272  2 0.0000  3.673818 21.073808 14.804304
1273  2 0.0000  3.673818 21.073808 22.455595
1274  2 0.0000  3.673818 21.073808 30.106886
1275  2 0.0000  3.673818 21.073808 37.758177
1276  2 0.0000  8.506438  1.743330  7.153012
1277  2 0.0000  8.506438  1.743330 14.804304
1278  2 0.0000  8.506438  1.743330 22.455595
1279  2 0.0000  8.506438  1.743330 30.106886
1280  2 0.0000  8.506438  1.743330 37.758177
1281  2 0.0000  8.506438  6.575949  7.153012
1282  2 0.0000  8.506438  6.575949 14.804304
1283  2 0.0000  8.506438  6.575949 22.455595
1284  2 0.0000  8.506438  6.575949 30.106886
1285  2 0.0000  8.506438  6.575949 37.758177
1286  2 0.0000  8.506438 11.408569  7.153012
1287  2 0.0000  8.506438 11.408569 14.804304
1288  2 0.0000  8.506438 11.408569 22.455595
1289  2 0.0000  8.506438 11.408569 30.106886
1290  2 0.0000  8.506438 11.408569 37.758177
1291  2 0.0000  8.506438 16.241188  7.153012
1292  2 0.0000  8.506438 16.241188 14.804304
1293  2 0.0000  8.506438 16.241188 22.455595
1294  2 0.0000  8.506438 16.241188 30.106886
1295  2 0.0000  8.506438 16.241188 37.758177
1296  2 0.0000  8.506438 21.073808  7.153012
1297  2 0.0000  8.506438 21.073808 14.804304
1298  2 0.0000  8.506438 21.073808 22.455595
1299  2 0.0000  8.506438 21.073808 30.106886
1300  2 0.0000  8.506438 21.073808 37.758177
1301  2 0.0000 13.339057  1.743330  7.153012
1302  2 0.0000 13.339057  1.743330 14.804304
1303  2 0.0000 13.339057  1.743330 22.455595
1304  2 0.0000 13.339057  1.743330 30.106886
1305  2 0.0000 13.339057  1.743330 37.758177
1306  2 0.0000 13.339057  6.575949  7.153012
1307  2 0.0000 13.339057  6.575949 14.804304
1308  2 0.0000 13.339057  6.575949 22.455595
1309  2 0.0000 13.339057  6.575949 30.106886
1310  2 0.0000 13.339057  6.575949 37.758177
1311  2 0.0000 13.339057 11.408569  7.153012
1312  2 0.0000 13.339057 11.408569 14.804304
1313  2 0.0000 13.339057 11.408569 22.455595
1314  2 0.0000 13.339057 11.408569 30.106886
1315  2 0.0000 13.339057 11.408569 37.758177
1316  2 0.0000 13.339057 16.241188  7.153012
1317  2 0.0000 13.339057 16.241188 14.804304
1318  2 0.0000 13.339057 16.241188 22.455595
1319  2 0.0000 13.339057 16.241188 30.106886
1320  2 0.0000 13.339057 16.241188 37.758177
1321  2 0.0000 13.339057 21.073808  7.153012
1322  2 0.0000 13.339057 21.073808 14.804304
1323  2 0.0000 13.339057 21.073808 22.455595
1324  2 0.0000 13.339057 21.073808 30.106886
1325  2 0.0000 13.339057 21.073808 37.758177
1326  2 0.0000 18.171677  1.743330  7.153012
1327  2 0.0000 18.171677  1.743330 14.804304
1328  2 0.0000 18.171677  1.743330 22.455595
1329  2 0.0000 18.171677  1.743330 30.106886
1330  2 0.0000 18.171677  1.743330 37.758177
1331  2 0.0000 18.171677  6.575949  7.153012
1332  2 0.0000 18.171677  6.575949 14.804304
1333  2 0.0000 18.171677  6.575949 22.455595
1334  2 0.0000 18.171677  6.575949 30.106886
1335  2 0.0000 18.171677  6.575949 37.758177
1336  2 0.0000 18.171677 11.408569  7.153012
1337  2 0.0000 18.171677 11.408569 14.804304
1338  2 0.0000 18.171677 11.408569 22.455595
1339  2 0.0000 18.171677 11.408569 30.106886
1340  2 0.0000 18.171677 11.408569 37.758177
1341  2 0.0000 18.171677 16.241188  7.153012
1342  2 0.0000 18.171677 16.241188 14.804304
1343  2 0.0000 18.171677 16.241188 22.455595
1344  2 0.0000 18.171677 16.241188 30.106886
1345  2 0.0000 18.171677 16.241188 37.758177
1346  2 0.0000 18.171677 21.073808  7.153012
1347  2 0.0000 18.171677 21.073808 14.804304
1348  2 0.0000 18.171677 21.073808 22.455595
1349  2 0.0000 18.171677 21.073808 30.106886
1350  2 0.0000 18.171677 21.073808 37.758177
1351  2 0.0000 23.004297  1.743330  7.153012
1352  2 0.0000 23.004297  1.743330 14.804304
1353  2 0.0000 23.004297  1.743330 22.455595
1354  2 0.0000 23.004297  1.743330 30.106886
1355  2 0.0000 23.004297  1.743330 37.758177
1356  2 0.0000 23.004297  6.575949  7.153012
1357  2 0.0000 23.004297  6.575949 14.804304
1358  2 0.0000 23.004297  6.575949 22.455595
1359  2 0.0000 23.004297  6.575949 30.106886
1360  2 0.0000 23.004297  6.575949 37.758177
1361  2 0.0000 23.004297 11.408569  7.153012
1362  2 0.0000 23.004297 11.408569 14.804304
1363  2 0.0000 23.004297 11.408569 22.455595
1364  2 0.0000 23.004297 11.408569 30.106886
1365  2 0.0000 23.004297 11.408569 37.758177
1366  2 0.0000 23.004297 16.241188  7.153012
1367  2 0.0000 23.004297 16.241188 14.804304
1368  2 0.0000 23.004297 16.241188 22.455595
1369  2 0.0000 23.004297 16.241188 30.106886
1370  2 0.0000 23.004297 16.241188 37.758177
1371  2 0.0000 23.004297 21.073808  7.153012
1372  2 0.0000 23.004297 21.073808 14.804304
1373  2 0.0000 23.004297 21.073808 22.455595
1374  2 0.0000 23.004297 21.073808 30.106886
1375  2 0.0000 23.004297 21.073808 37.758177
1376  2 0.0000  3.089290  1.158801  4.323924
1377  2 0.0000  3.089290  1.158801 11.975216
1378  2 0.0000  3.089290  1.158801 19.626507
1379  2 0.0000  3.089290  1.158801 27.277798
1380  2 0.0000  3.089290  1.158801 34.929089
1381  2 0.0000  3.089290  5.991421  4.323924
1382  2 0.0000  3.089290  5.991421 11.975216
1383  2 0.0000  3.089290  5.991421 19.626507
1384  2 0.0000  3.089290  5.991421 27.277798
1385  2 0.0000  3.089290  5.991421 34.929089
1386  2 0.0000  3.089290 10.824040  4.323924
1387  2 0.0000  3.089290 10.824040 11.975216
1388  2 0.0000  3.089290 10.824040 19.626507
1389  2 0.0000  3.089290 10.824040 27.277798
1390  2 0.0000  3.089290 10.824040 34.929089
1391  2 0.0000  3.089290 15.656660  4.323924
1392  2 0.0000  3.089290 15.656660 11.975216
1393  2 0.0000  3.089290 15.656660 19.626507
1394  2 0.0000  3.089290 15.656660 27.277798
1395  2 0.0000  3.089290 15.656660 34.929089
1396  2 0.0000  3.089290 20.489279  4.323924
1397  2 0.0000  3.089290 20.489279 11.975216
1398  2 0.0000  3.089290 20.489279 19.626507
1399  2 0.0000  3.089290 20.489279 27.277798
1400  2 0.0000  3.089290 20.489279 34.929089
1401  2 0.0000  7.921909  1.158801  4.323924
1402  2 0.0000  7.921909  1.158801 11.975216
1403  2 0.0000  7.921909  1.158801 19.626507
1404  2 0.0000  7.921909  1.158801 27.277798
1405  2 0.0000  7.921909  1.158801 34.929089
1406  2 0.0000  7.921909  5.991421  4.323924
1407  2 0.0000  7.921909  5.991421 11.975216
1408  2 0.0000  7.921909  5.991421 19.626507
1409  2 0.0000  7.921909  5.991421 27.277798
1410  2 0.0000  7.921909  5.991421 34.929089
1411  2 0.0000  7.921909 10.824040  4.323924
1412  2 0.0000  7.921909 10.824040 11.975216
1413  2 0.0000  7.921909 10.824040 19.626507
1414  2 0.0000  7.921909 10.824040 27.277798
1415  2 0.0000  7.921909 10.824040 34.929089
1416  2 0.0000  7.921909 15.656660  4.323924
1417  2 0.0000  7.921909 15.656660 11.975216
1418  2 0.0000  7.921909 15.656660 19.626507
1419  2 0.0000  7.921909 15.656660 27.277798
1420  2 0.0000  7.921909 15.656660 34.929089
1421  2 0.0000  7.921909 20.489279  4.323924
1422  2 0.0000  7.921909 20.489279 11.975216
1423  2 0.0000  7.921909 20.489279 19.626507
1424  2 0.0000  7.921909 20.489279 27.277798
1425  2 0.0000  7.921909 20.489279 34.929089
1426  2 0.0000 12.754529  1.158801  4.323924
1427  2 0.0000 12.754529  1.158801 11.975216
1428  2 0.0000 12.754529  1.158801 19.626507
1429  2 0.0000 12.754529  1.158801 27.277798
1430  2 0.0000 12.754529  1.158801 34.929089
1431  2 0.0000 12.754529  5.991421  4.323924
1432  2 0.0000 12.754529  5.991421 11.975216
1433  2 0.0000 12.754529  5.991421 19.626507
1434  2 0.0000 12.754529  5.991421 27.277798
1435  2 0.0000 12.754529  5.991421 34.929089
1436  2 0.0000 12.754529 10.824040  4.323924
1437  2 0.0000 12.754529 10.824040 11.975216
1438  2 0.0000 12.754529 10.824040 19.626507
1439  2 0.0000 12.754529 10.824040 27.277798
1440  2 0.0000 12.754529 10.824040 34.929089
1441  2 0.0000 12.754529 15.656660  4.323924
1442  2 0.0000 12.754529 15.656660 11.975216
1443  2 0.0000 12.754529 15.656660 19.626507
1444  2 0.0000 12.754529 15.656660 27.277798
1445  2 0.0000 12.754529 15.656660 34.929089
1446  2 0.0000 12.754529 20.489279  4.323924
1447  2 0.0000 12.754529 20.489279 11.975216
1448  2 0.0000 12.754529 20.489279 19.626507
1449  2 0.0000 12.754529 20.489279 27.277798
1450  2 0.0000 12.754529 20.489279 34.929089
1451  2 0.0000 17.587149  1.158801  4.323924
1452  2 0.0000 17.587149  1.158801 11.975216
1453  2 0.0000 17.587149  1.158801 19.626507
1454  2 0.0000 17.587149  1.158801 27.277798
1455  2 0.0000 17.587149  1.158801 34.929089
1456  2 0.0000 17.587149  5.991421  4.323924
1457  2 0.0000 17.587149  5.991421 11.975216
1458  2 0.0000 17.587149  5.991421 19.626507
1459  2 0.0000 17.587149  5.991421 27.277798
1460  2 0.0000 17.587149  5.991421 34.929089
1461  2 0.0000 17.587149 10.824040  4.323924
1462  2 0.0000 17.587149 10.824040 11.975216
1463  2 0.0000 17.587149 10.824040 19.626507
1464  2 0.0000 17.587149 10.824040 27.277798
1465  2 0.0000 17.587149 10.824040 34.929089
1466  2 0.0000 17.587149 15.656660  4.323924
1467  2 0.0000 17.587149 15.656660 11.975216
1468  2 0.0000 17.587149 15.656660 19.626507
1469  2 0.0000 17.587149 15.656660 27.277798
1470  2 0.0000 17.587149 15.656660 34.929089
1471  2 0.0000 17.587149 20.489279  4.323924
1472  2 0.0000 17.587149 20.489279 11.975216
1473  2 0.0000 17.587149 20.489279 19.626507
1474  2 0.0000 17.587149 20.489279 27.277798
1475  2 0.0000 17.587149 20.489279 34.929089
1476  2 0.0000 22.419768  1.158801  4.323924
1477  2 0.0000 22.419768  1.158801 11.975216
1478  2 0.0000 22.419768  1.158801 19.626507
1479  2 0.0000 22.419768  1.158801 27.277798
1480  2 0.0000 22.419768  1.158801 34.929089
1481  2 0.0000 22.419768  5.991421  4.323924
1482  2 0.0000 22.419768  5.991421 11.975216
1483  2 0.0000 22.419768  5.991421 19.626507
1484  2 0.0000 22.419768  5.991421 27.277798
1485  2 0.0000 22.419768  5.991421 34.929089
1486  2 0.0000 22.419768 10.824040  4.323924
1487  2 0.0000 22.419768 10.824040 11.975216
1488  2 0.0000 22.419768 10.824040 19.626507
1489  2 0.0000 22.419768 10.824040 27.277798
1490  2 0.0000 22.419768 10.824040 34.929089
1491  2 0.0000 22.419768 15.656660  4.323924
1492  2 0.0000 22.419768 15.656660 11.975216
1493  2 0.0000 22.419768 15.656660 19.626507
1494  2 0.0000 22.419768 15.656660 27.277798
1495  2 0.0000 22.419768 15.656660 34.929089
1496  2 0.0000 22.419768 20.489279  4.323924
1497  2 0.0000 22.419768 20.489279 11.975216
1498  2 0.0000 22.419768 20.489279 19.626507
1499  2 0.0000 22.419768 20.489279 27.277798
1500  2 0.0000 22.419768 20.489279 34.929089

