Generated by pymatgen.io.lammps.data.LammpsData

1500  atoms

   2  atom types

0.000000 27.347510  xlo xhi
0.000000 26.149257  ylo yhi
0.000000 21.888909  zlo zhi
-8.006471 -8.004067 -14.307263  xy xz yz

Masses

1  47.8670
2  15.9994

Atoms

1     1 0.0000   0.333178   1.776275  3.283317
2     1 0.0000  -1.267635  -1.085178  7.661098
3     1 0.0000  -2.868448  -3.946630 12.038880
4     1 0.0000  -4.469262  -6.808083 16.416662
5     1 0.0000  -6.070075  -9.669535 20.794444
6     1 0.0000  -1.268116   7.006126  3.283317
7     1 0.0000  -2.868929   4.144674  7.661098
8     1 0.0000  -4.469743   1.283221 12.038880
9     1 0.0000  -6.070556  -1.578232 16.416662
10    1 0.0000  -7.671369  -4.439684 20.794444
11    1 0.0000  -2.869410  12.235978  3.283317
12    1 0.0000  -4.470224   9.374525  7.661098
13    1 0.0000  -6.071037   6.513072 12.038880
14    1 0.0000  -7.671850   3.651620 16.416662
15    1 0.0000  -9.272664   0.790167 20.794444
16    1 0.0000  -4.470705  17.465829  3.283317
17    1 0.0000  -6.071518  14.604376  7.661098
18    1 0.0000  -7.672331  11.742924 12.038880
19    1 0.0000  -9.273145   8.881471 16.416662
20    1 0.0000 -10.873958   6.020019 20.794444
21    1 0.0000  -6.071999  22.695680  3.283317
22    1 0.0000  -7.672812  19.834228  7.661098
23    1 0.0000  -9.273625  16.972775 12.038880
24    1 0.0000 -10.874439  14.111323 16.416662
25    1 0.0000 -12.475252  11.249870 20.794444
26    1 0.0000   5.802680   1.776275  3.283317
27    1 0.0000   4.201867  -1.085178  7.661098
28    1 0.0000   2.601054  -3.946630 12.038880
29    1 0.0000   1.000240  -6.808083 16.416662
30    1 0.0000  -0.600573  -9.669535 20.794444
31    1 0.0000   4.201386   7.006126  3.283317
32    1 0.0000   2.600573   4.144674  7.661098
33    1 0.0000   0.999759   1.283221 12.038880
34    1 0.0000  -0.601054  -1.578232 16.416662
35    1 0.0000  -2.201867  -4.439684 20.794444
36    1 0.0000   2.600092  12.235978  3.283317
37    1 0.0000   0.999279   9.374525  7.661098
38    1 0.0000  -0.601535   6.513072 12.038880
39    1 0.0000  -2.202348   3.651620 16.416662
40    1 0.0000  -3.803161   0.790167 20.794444
41    1 0.0000   0.998798  17.465829  3.283317
42    1 0.0000  -0.602016  14.604376  7.661098
43    1 0.0000  -2.202829  11.742924 12.038880
44    1 0.0000  -3.803642   8.881471 16.416662
45    1 0.0000  -5.404456   6.020019 20.794444
46    1 0.0000  -0.602497  22.695680  3.283317
47    1 0.0000  -2.203310  19.834228  7.661098
48    1 0.0000  -3.804123  16.972775 12.038880
49    1 0.0000  -5.404937  14.111323 16.416662
50    1 0.0000  -7.005750  11.249870 20.794444
51    1 0.0000  11.272182   1.776275  3.283317
52    1 0.0000   9.671369  -1.085178  7.661098
53    1 0.0000   8.070556  -3.946630 12.038880
54    1 0.0000   6.469742  -6.808083 16.416662
55    1 0.0000   4.868929  -9.669535 20.794444
56    1 0.0000   9.670888   7.006126  3.283317
57    1 0.0000   8.070075   4.144674  7.661098
58    1 0.0000   6.469262   1.283221 12.038880
59    1 0.0000   4.868448  -1.578232 16.416662
60    1 0.0000   3.267635  -4.439684 20.794444
61    1 0.0000   8.069594  12.235978  3.283317
62    1 0.0000   6.468781   9.374525  7.661098
63    1 0.0000   4.867967   6.513072 12.038880
64    1 0.0000   3.267154   3.651620 16.416662
65    1 0.0000   1.666341   0.790167 20.794444
66    1 0.0000   6.468300  17.465829  3.283317
67    1 0.0000   4.867486  14.604376  7.661098
68    1 0.0000   3.266673  11.742924 12.038880
69    1 0.0000   1.665860   8.881471 16.416662
70    1 0.0000   0.065046   6.020019 20.794444
71    1 0.0000   4.867005  22.695680  3.283317
72    1 0.0000   3.266192  19.834228  7.661098
73    1 0.0000   1.665379  16.972775 12.038880
74    1 0.0000   0.064565  14.111323 16.416662
75    1 0.0000  -1.536248  11.249870 20.794444
76    1 0.0000  16.741685   1.776275  3.283317
77    1 0.0000  15.140871  -1.085178  7.661098
78    1 0.0000  13.540058  -3.946630 12.038880
79    1 0.0000  11.939245  -6.808083 16.416662
80    1 0.0000  10.338431  -9.669535 20.794444
81    1 0.0000  15.140390   7.006126  3.283317
82    1 0.0000  13.539577   4.144674  7.661098
83    1 0.0000  11.938764   1.283221 12.038880
84    1 0.0000  10.337950  -1.578232 16.416662
85    1 0.0000   8.737137  -4.439684 20.794444
86    1 0.0000  13.539096  12.235978  3.283317
87    1 0.0000  11.938283   9.374525  7.661098
88    1 0.0000  10.337469   6.513072 12.038880
89    1 0.0000   8.736656   3.651620 16.416662
90    1 0.0000   7.135843   0.790167 20.794444
91    1 0.0000  11.937802  17.465829  3.283317
92    1 0.0000  10.336988  14.604376  7.661098
93    1 0.0000   8.736175  11.742924 12.038880
94    1 0.0000   7.135362   8.881471 16.416662
95    1 0.0000   5.534548   6.020019 20.794444
96    1 0.0000  10.336507  22.695680  3.283317
97    1 0.0000   8.735694  19.834228  7.661098
98    1 0.0000   7.134881  16.972775 12.038880
99    1 0.0000   5.534067  14.111323 16.416662
100   1 0.0000   3.933254  11.249870 20.794444
101   1 0.0000  22.211187   1.776275  3.283317
102   1 0.0000  20.610373  -1.085178  7.661098
103   1 0.0000  19.009560  -3.946630 12.038880
104   1 0.0000  17.408747  -6.808083 16.416662
105   1 0.0000  15.807933  -9.669535 20.794444
106   1 0.0000  20.609892   7.006126  3.283317
107   1 0.0000  19.009079   4.144674  7.661098
108   1 0.0000  17.408266   1.283221 12.038880
109   1 0.0000  15.807452  -1.578232 16.416662
110   1 0.0000  14.206639  -4.439684 20.794444
111   1 0.0000  19.008598  12.235978  3.283317
112   1 0.0000  17.407785   9.374525  7.661098
113   1 0.0000  15.806971   6.513072 12.038880
114   1 0.0000  14.206158   3.651620 16.416662
115   1 0.0000  12.605345   0.790167 20.794444
116   1 0.0000  17.407304  17.465829  3.283317
117   1 0.0000  15.806490  14.604376  7.661098
118   1 0.0000  14.205677  11.742924 12.038880
119   1 0.0000  12.604864   8.881471 16.416662
120   1 0.0000  11.004050   6.020019 20.794444
121   1 0.0000  15.806009  22.695680  3.283317
122   1 0.0000  14.205196  19.834228  7.661098
123   1 0.0000  12.604383  16.972775 12.038880
124   1 0.0000  11.003569  14.111323 16.416662
125   1 0.0000   9.402756  11.249870 20.794444
126   1 0.0000   1.934231   0.592117  1.094452
127   1 0.0000   0.333417  -2.269336  5.472234
128   1 0.0000  -1.267396  -5.130788  9.850016
129   1 0.0000  -2.868209  -7.992241 14.227797
130   1 0.0000  -4.469023 -10.853694 18.605579
131   1 0.0000   0.332936   5.821968  1.094452
132   1 0.0000  -1.267877   2.960515  5.472234
133   1 0.0000  -2.868690   0.099063  9.850016
134   1 0.0000  -4.469504  -2.762390 14.227797
135   1 0.0000  -6.070317  -5.623842 18.605579
136   1 0.0000  -1.268358  11.051819  1.094452
137   1 0.0000  -2.869171   8.190367  5.472234
138   1 0.0000  -4.469985   5.328914  9.850016
139   1 0.0000  -6.070798   2.467462 14.227797
140   1 0.0000  -7.671611  -0.393991 18.605579
141   1 0.0000  -2.869652  16.281671  1.094452
142   1 0.0000  -4.470466  13.420218  5.472234
143   1 0.0000  -6.071279  10.558766  9.850016
144   1 0.0000  -7.672092   7.697313 14.227797
145   1 0.0000  -9.272906   4.835860 18.605579
146   1 0.0000  -4.470947  21.511522  1.094452
147   1 0.0000  -6.071760  18.650070  5.472234
148   1 0.0000  -7.672573  15.788617  9.850016
149   1 0.0000  -9.273387  12.927164 14.227797
150   1 0.0000 -10.874200  10.065712 18.605579
151   1 0.0000   7.403733   0.592117  1.094452
152   1 0.0000   5.802919  -2.269336  5.472234
153   1 0.0000   4.202106  -5.130788  9.850016
154   1 0.0000   2.601293  -7.992241 14.227797
155   1 0.0000   1.000479 -10.853694 18.605579
156   1 0.0000   5.802438   5.821968  1.094452
157   1 0.0000   4.201625   2.960515  5.472234
158   1 0.0000   2.600812   0.099063  9.850016
159   1 0.0000   0.999998  -2.762390 14.227797
160   1 0.0000  -0.600815  -5.623842 18.605579
161   1 0.0000   4.201144  11.051819  1.094452
162   1 0.0000   2.600331   8.190367  5.472234
163   1 0.0000   0.999517   5.328914  9.850016
164   1 0.0000  -0.601296   2.467462 14.227797
165   1 0.0000  -2.202109  -0.393991 18.605579
166   1 0.0000   2.599850  16.281671  1.094452
167   1 0.0000   0.999036  13.420218  5.472234
168   1 0.0000  -0.601777  10.558766  9.850016
169   1 0.0000  -2.202590   7.697313 14.227797
170   1 0.0000  -3.803404   4.835860 18.605579
171   1 0.0000   0.998555  21.511522  1.094452
172   1 0.0000  -0.602258  18.650070  5.472234
173   1 0.0000  -2.203071  15.788617  9.850016
174   1 0.0000  -3.803885  12.927164 14.227797
175   1 0.0000  -5.404698  10.065712 18.605579
176   1 0.0000  12.873235   0.592117  1.094452
177   1 0.0000  11.272421  -2.269336  5.472234
178   1 0.0000   9.671608  -5.130788  9.850016
179   1 0.0000   8.070795  -7.992241 14.227797
180   1 0.0000   6.469981 -10.853694 18.605579
181   1 0.0000  11.271940   5.821968  1.094452
182   1 0.0000   9.671127   2.960515  5.472234
183   1 0.0000   8.070314   0.099063  9.850016
184   1 0.0000   6.469500  -2.762390 14.227797
185   1 0.0000   4.868687  -5.623842 18.605579
186   1 0.0000   9.670646  11.051819  1.094452
187   1 0.0000   8.069833   8.190367  5.472234
188   1 0.0000   6.469019   5.328914  9.850016
189   1 0.0000   4.868206   2.467462 14.227797
190   1 0.0000   3.267393  -0.393991 18.605579
191   1 0.0000   8.069352  16.281671  1.094452
192   1 0.0000   6.468539  13.420218  5.472234
193   1 0.0000   4.867725  10.558766  9.850016
194   1 0.0000   3.266912   7.697313 14.227797
195   1 0.0000   1.666099   4.835860 18.605579
196   1 0.0000   6.468058  21.511522  1.094452
197   1 0.0000   4.867244  18.650070  5.472234
198   1 0.0000   3.266431  15.788617  9.850016
199   1 0.0000   1.665618  12.927164 14.227797
200   1 0.0000   0.064804  10.065712 18.605579
201   1 0.0000  18.342737   0.592117  1.094452
202   1 0.0000  16.741923  -2.269336  5.472234
203   1 0.0000  15.141110  -5.130788  9.850016
204   1 0.0000  13.540297  -7.992241 14.227797
205   1 0.0000  11.939483 -10.853694 18.605579
206   1 0.0000  16.741442   5.821968  1.094452
207   1 0.0000  15.140629   2.960515  5.472234
208   1 0.0000  13.539816   0.099063  9.850016
209   1 0.0000  11.939002  -2.762390 14.227797
210   1 0.0000  10.338189  -5.623842 18.605579
211   1 0.0000  15.140148  11.051819  1.094452
212   1 0.0000  13.539335   8.190367  5.472234
213   1 0.0000  11.938522   5.328914  9.850016
214   1 0.0000  10.337708   2.467462 14.227797
215   1 0.0000   8.736895  -0.393991 18.605579
216   1 0.0000  13.538854  16.281671  1.094452
217   1 0.0000  11.938041  13.420218  5.472234
218   1 0.0000  10.337227  10.558766  9.850016
219   1 0.0000   8.736414   7.697313 14.227797
220   1 0.0000   7.135601   4.835860 18.605579
221   1 0.0000  11.937560  21.511522  1.094452
222   1 0.0000  10.336746  18.650070  5.472234
223   1 0.0000   8.735933  15.788617  9.850016
224   1 0.0000   7.135120  12.927164 14.227797
225   1 0.0000   5.534306  10.065712 18.605579
226   1 0.0000  23.812239   0.592117  1.094452
227   1 0.0000  22.211426  -2.269336  5.472234
228   1 0.0000  20.610612  -5.130788  9.850016
229   1 0.0000  19.009799  -7.992241 14.227797
230   1 0.0000  17.408986 -10.853694 18.605579
231   1 0.0000  22.210945   5.821968  1.094452
232   1 0.0000  20.610131   2.960515  5.472234
233   1 0.0000  19.009318   0.099063  9.850016
234   1 0.0000  17.408505  -2.762390 14.227797
235   1 0.0000  15.807691  -5.623842 18.605579
236   1 0.0000  20.609650  11.051819  1.094452
237   1 0.0000  19.008837   8.190367  5.472234
238   1 0.0000  17.408024   5.328914  9.850016
239   1 0.0000  15.807210   2.467462 14.227797
240   1 0.0000  14.206397  -0.393991 18.605579
241   1 0.0000  19.008356  16.281671  1.094452
242   1 0.0000  17.407543  13.420218  5.472234
243   1 0.0000  15.806729  10.558766  9.850016
244   1 0.0000  14.205916   7.697313 14.227797
245   1 0.0000  12.605103   4.835860 18.605579
246   1 0.0000  17.407062  21.511522  1.094452
247   1 0.0000  15.806248  18.650070  5.472234
248   1 0.0000  14.205435  15.788617  9.850016
249   1 0.0000  12.604622  12.927164 14.227797
250   1 0.0000  11.003808  10.065712 18.605579
251   1 0.0000   4.669092  -1.430724  2.188895
252   1 0.0000   3.068279  -4.292177  6.566676
253   1 0.0000   1.467466  -7.153629 10.944458
254   1 0.0000  -0.133348 -10.015082 15.322240
255   1 0.0000  -1.734161 -12.876535 19.700022
256   1 0.0000   3.067798   3.799127  2.188895
257   1 0.0000   1.466985   0.937675  6.566676
258   1 0.0000  -0.133829  -1.923778 10.944458
259   1 0.0000  -1.734642  -4.785231 15.322240
260   1 0.0000  -3.335455  -7.646683 19.700022
261   1 0.0000   1.466504   9.028978  2.188895
262   1 0.0000  -0.134310   6.167526  6.566676
263   1 0.0000  -1.735123   3.306073 10.944458
264   1 0.0000  -3.335936   0.444621 15.322240
265   1 0.0000  -4.936750  -2.416832 19.700022
266   1 0.0000  -0.134791  14.258830  2.188895
267   1 0.0000  -1.735604  11.397377  6.566676
268   1 0.0000  -3.336417   8.535925 10.944458
269   1 0.0000  -4.937231   5.674472 15.322240
270   1 0.0000  -6.538044   2.813020 19.700022
271   1 0.0000  -1.736085  19.488681  2.188895
272   1 0.0000  -3.336898  16.627229  6.566676
273   1 0.0000  -4.937712  13.765776 10.944458
274   1 0.0000  -6.538525  10.904323 15.322240
275   1 0.0000  -8.139338   8.042871 19.700022
276   1 0.0000  10.138594  -1.430724  2.188895
277   1 0.0000   8.537781  -4.292177  6.566676
278   1 0.0000   6.936968  -7.153629 10.944458
279   1 0.0000   5.336154 -10.015082 15.322240
280   1 0.0000   3.735341 -12.876535 19.700022
281   1 0.0000   8.537300   3.799127  2.188895
282   1 0.0000   6.936487   0.937675  6.566676
283   1 0.0000   5.335673  -1.923778 10.944458
284   1 0.0000   3.734860  -4.785231 15.322240
285   1 0.0000   2.134047  -7.646683 19.700022
286   1 0.0000   6.936006   9.028978  2.188895
287   1 0.0000   5.335192   6.167526  6.566676
288   1 0.0000   3.734379   3.306073 10.944458
289   1 0.0000   2.133566   0.444621 15.322240
290   1 0.0000   0.532752  -2.416832 19.700022
291   1 0.0000   5.334711  14.258830  2.188895
292   1 0.0000   3.733898  11.397377  6.566676
293   1 0.0000   2.133085   8.535925 10.944458
294   1 0.0000   0.532271   5.674472 15.322240
295   1 0.0000  -1.068542   2.813020 19.700022
296   1 0.0000   3.733417  19.488681  2.188895
297   1 0.0000   2.132604  16.627229  6.566676
298   1 0.0000   0.531791  13.765776 10.944458
299   1 0.0000  -1.069023  10.904323 15.322240
300   1 0.0000  -2.669836   8.042871 19.700022
301   1 0.0000  15.608096  -1.430724  2.188895
302   1 0.0000  14.007283  -4.292177  6.566676
303   1 0.0000  12.406470  -7.153629 10.944458
304   1 0.0000  10.805656 -10.015082 15.322240
305   1 0.0000   9.204843 -12.876535 19.700022
306   1 0.0000  14.006802   3.799127  2.188895
307   1 0.0000  12.405989   0.937675  6.566676
308   1 0.0000  10.805175  -1.923778 10.944458
309   1 0.0000   9.204362  -4.785231 15.322240
310   1 0.0000   7.603549  -7.646683 19.700022
311   1 0.0000  12.405508   9.028978  2.188895
312   1 0.0000  10.804695   6.167526  6.566676
313   1 0.0000   9.203881   3.306073 10.944458
314   1 0.0000   7.603068   0.444621 15.322240
315   1 0.0000   6.002255  -2.416832 19.700022
316   1 0.0000  10.804214  14.258830  2.188895
317   1 0.0000   9.203400  11.397377  6.566676
318   1 0.0000   7.602587   8.535925 10.944458
319   1 0.0000   6.001774   5.674472 15.322240
320   1 0.0000   4.400960   2.813020 19.700022
321   1 0.0000   9.202919  19.488681  2.188895
322   1 0.0000   7.602106  16.627229  6.566676
323   1 0.0000   6.001293  13.765776 10.944458
324   1 0.0000   4.400479  10.904323 15.322240
325   1 0.0000   2.799666   8.042871 19.700022
326   1 0.0000  21.077598  -1.430724  2.188895
327   1 0.0000  19.476785  -4.292177  6.566676
328   1 0.0000  17.875972  -7.153629 10.944458
329   1 0.0000  16.275158 -10.015082 15.322240
330   1 0.0000  14.674345 -12.876535 19.700022
331   1 0.0000  19.476304   3.799127  2.188895
332   1 0.0000  17.875491   0.937675  6.566676
333   1 0.0000  16.274678  -1.923778 10.944458
334   1 0.0000  14.673864  -4.785231 15.322240
335   1 0.0000  13.073051  -7.646683 19.700022
336   1 0.0000  17.875010   9.028978  2.188895
337   1 0.0000  16.274197   6.167526  6.566676
338   1 0.0000  14.673383   3.306073 10.944458
339   1 0.0000  13.072570   0.444621 15.322240
340   1 0.0000  11.471757  -2.416832 19.700022
341   1 0.0000  16.273716  14.258830  2.188895
342   1 0.0000  14.672902  11.397377  6.566676
343   1 0.0000  13.072089   8.535925 10.944458
344   1 0.0000  11.471276   5.674472 15.322240
345   1 0.0000   9.870462   2.813020 19.700022
346   1 0.0000  14.672421  19.488681  2.188895
347   1 0.0000  13.071608  16.627229  6.566676
348   1 0.0000  11.470795  13.765776 10.944458
349   1 0.0000   9.869981  10.904323 15.322240
350   1 0.0000   8.269168   8.042871 19.700022
351   1 0.0000  26.547101  -1.430724  2.188895
352   1 0.0000  24.946287  -4.292177  6.566676
353   1 0.0000  23.345474  -7.153629 10.944458
354   1 0.0000  21.744661 -10.015082 15.322240
355   1 0.0000  20.143847 -12.876535 19.700022
356   1 0.0000  24.945806   3.799127  2.188895
357   1 0.0000  23.344993   0.937675  6.566676
358   1 0.0000  21.744180  -1.923778 10.944458
359   1 0.0000  20.143366  -4.785231 15.322240
360   1 0.0000  18.542553  -7.646683 19.700022
361   1 0.0000  23.344512   9.028978  2.188895
362   1 0.0000  21.743699   6.167526  6.566676
363   1 0.0000  20.142885   3.306073 10.944458
364   1 0.0000  18.542072   0.444621 15.322240
365   1 0.0000  16.941259  -2.416832 19.700022
366   1 0.0000  21.743218  14.258830  2.188895
367   1 0.0000  20.142404  11.397377  6.566676
368   1 0.0000  18.541591   8.535925 10.944458
369   1 0.0000  16.940778   5.674472 15.322240
370   1 0.0000  15.339964   2.813020 19.700022
371   1 0.0000  20.141923  19.488681  2.188895
372   1 0.0000  18.541110  16.627229  6.566676
373   1 0.0000  16.940297  13.765776 10.944458
374   1 0.0000  15.339483  10.904323 15.322240
375   1 0.0000  13.738670   8.042871 19.700022
376   1 0.0000   4.668846   2.614929  0.000009
377   1 0.0000   3.068033  -0.246524  4.377791
378   1 0.0000   1.467219  -3.107976  8.755573
379   1 0.0000  -0.133594  -5.969429 13.133354
380   1 0.0000  -1.734407  -8.830881 17.511136
381   1 0.0000   3.067552   7.844780  0.000009
382   1 0.0000   1.466738   4.983328  4.377791
383   1 0.0000  -0.134075   2.121875  8.755573
384   1 0.0000  -1.734888  -0.739577 13.133354
385   1 0.0000  -3.335702  -3.601030 17.511136
386   1 0.0000   1.466257  13.074632  0.000009
387   1 0.0000  -0.134556  10.213179  4.377791
388   1 0.0000  -1.735369   7.351727  8.755573
389   1 0.0000  -3.336183   4.490274 13.133354
390   1 0.0000  -4.936996   1.628821 17.511136
391   1 0.0000  -0.135037  18.304483  0.000009
392   1 0.0000  -1.735850  15.443031  4.377791
393   1 0.0000  -3.336664  12.581578  8.755573
394   1 0.0000  -4.937477   9.720125 13.133354
395   1 0.0000  -6.538290   6.858673 17.511136
396   1 0.0000  -1.736331  23.534335  0.000009
397   1 0.0000  -3.337145  20.672882  4.377791
398   1 0.0000  -4.937958  17.811429  8.755573
399   1 0.0000  -6.538771  14.949977 13.133354
400   1 0.0000  -8.139585  12.088524 17.511136
401   1 0.0000  10.138348   2.614929  0.000009
402   1 0.0000   8.537535  -0.246524  4.377791
403   1 0.0000   6.936721  -3.107976  8.755573
404   1 0.0000   5.335908  -5.969429 13.133354
405   1 0.0000   3.735095  -8.830881 17.511136
406   1 0.0000   8.537054   7.844780  0.000009
407   1 0.0000   6.936240   4.983328  4.377791
408   1 0.0000   5.335427   2.121875  8.755573
409   1 0.0000   3.734614  -0.739577 13.133354
410   1 0.0000   2.133800  -3.601030 17.511136
411   1 0.0000   6.935759  13.074632  0.000009
412   1 0.0000   5.334946  10.213179  4.377791
413   1 0.0000   3.734133   7.351727  8.755573
414   1 0.0000   2.133319   4.490274 13.133354
415   1 0.0000   0.532506   1.628821 17.511136
416   1 0.0000   5.334465  18.304483  0.000009
417   1 0.0000   3.733652  15.443031  4.377791
418   1 0.0000   2.132838  12.581578  8.755573
419   1 0.0000   0.532025   9.720125 13.133354
420   1 0.0000  -1.068788   6.858673 17.511136
421   1 0.0000   3.733171  23.534335  0.000009
422   1 0.0000   2.132358  20.672882  4.377791
423   1 0.0000   0.531544  17.811429  8.755573
424   1 0.0000  -1.069269  14.949977 13.133354
425   1 0.0000  -2.670082  12.088524 17.511136
426   1 0.0000  15.607850   2.614929  0.000009
427   1 0.0000  14.007037  -0.246524  4.377791
428   1 0.0000  12.406223  -3.107976  8.755573
429   1 0.0000  10.805410  -5.969429 13.133354
430   1 0.0000   9.204597  -8.830881 17.511136
431   1 0.0000  14.006556   7.844780  0.000009
432   1 0.0000  12.405742   4.983328  4.377791
433   1 0.0000  10.804929   2.121875  8.755573
434   1 0.0000   9.204116  -0.739577 13.133354
435   1 0.0000   7.603302  -3.601030 17.511136
436   1 0.0000  12.405262  13.074632  0.000009
437   1 0.0000  10.804448  10.213179  4.377791
438   1 0.0000   9.203635   7.351727  8.755573
439   1 0.0000   7.602822   4.490274 13.133354
440   1 0.0000   6.002008   1.628821 17.511136
441   1 0.0000  10.803967  18.304483  0.000009
442   1 0.0000   9.203154  15.443031  4.377791
443   1 0.0000   7.602341  12.581578  8.755573
444   1 0.0000   6.001527   9.720125 13.133354
445   1 0.0000   4.400714   6.858673 17.511136
446   1 0.0000   9.202673  23.534335  0.000009
447   1 0.0000   7.601860  20.672882  4.377791
448   1 0.0000   6.001046  17.811429  8.755573
449   1 0.0000   4.400233  14.949977 13.133354
450   1 0.0000   2.799420  12.088524 17.511136
451   1 0.0000  21.077352   2.614929  0.000009
452   1 0.0000  19.476539  -0.246524  4.377791
453   1 0.0000  17.875725  -3.107976  8.755573
454   1 0.0000  16.274912  -5.969429 13.133354
455   1 0.0000  14.674099  -8.830881 17.511136
456   1 0.0000  19.476058   7.844780  0.000009
457   1 0.0000  17.875245   4.983328  4.377791
458   1 0.0000  16.274431   2.121875  8.755573
459   1 0.0000  14.673618  -0.739577 13.133354
460   1 0.0000  13.072805  -3.601030 17.511136
461   1 0.0000  17.874764  13.074632  0.000009
462   1 0.0000  16.273950  10.213179  4.377791
463   1 0.0000  14.673137   7.351727  8.755573
464   1 0.0000  13.072324   4.490274 13.133354
465   1 0.0000  11.471510   1.628821 17.511136
466   1 0.0000  16.273469  18.304483  0.000009
467   1 0.0000  14.672656  15.443031  4.377791
468   1 0.0000  13.071843  12.581578  8.755573
469   1 0.0000  11.471029   9.720125 13.133354
470   1 0.0000   9.870216   6.858673 17.511136
471   1 0.0000  14.672175  23.534335  0.000009
472   1 0.0000  13.071362  20.672882  4.377791
473   1 0.0000  11.470548  17.811429  8.755573
474   1 0.0000   9.869735  14.949977 13.133354
475   1 0.0000   8.268922  12.088524 17.511136
476   1 0.0000  26.546854   2.614929  0.000009
477   1 0.0000  24.946041  -0.246524  4.377791
478   1 0.0000  23.345228  -3.107976  8.755573
479   1 0.0000  21.744414  -5.969429 13.133354
480   1 0.0000  20.143601  -8.830881 17.511136
481   1 0.0000  24.945560   7.844780  0.000009
482   1 0.0000  23.344747   4.983328  4.377791
483   1 0.0000  21.743933   2.121875  8.755573
484   1 0.0000  20.143120  -0.739577 13.133354
485   1 0.0000  18.542307  -3.601030 17.511136
486   1 0.0000  23.344266  13.074632  0.000009
487   1 0.0000  21.743452  10.213179  4.377791
488   1 0.0000  20.142639   7.351727  8.755573
489   1 0.0000  18.541826   4.490274 13.133354
490   1 0.0000  16.941012   1.628821 17.511136
491   1 0.0000  21.742971  18.304483  0.000009
492   1 0.0000  20.142158  15.443031  4.377791
493   1 0.0000  18.541345  12.581578  8.755573
494   1 0.0000  16.940531   9.720125 13.133354
495   1 0.0000  15.339718   6.858673 17.511136
496   1 0.0000  20.141677  23.534335  0.000009
497   1 0.0000  18.540864  20.672882  4.377791
498   1 0.0000  16.940050  17.811429  8.755573
499   1 0.0000  15.339237  14.949977 13.133354
500   1 0.0000  13.738424  12.088524 17.511136
501   2 0.0000   0.375798   0.161551  2.190216
502   2 0.0000  -1.225016  -2.699901  6.567998
503   2 0.0000  -2.825829  -5.561354 10.945780
504   2 0.0000  -4.426642  -8.422807 15.323562
505   2 0.0000  -6.027456 -11.284259 19.701344
506   2 0.0000  -1.225497   5.391402  2.190216
507   2 0.0000  -2.826310   2.529950  6.567998
508   2 0.0000  -4.427123  -0.331503 10.945780
509   2 0.0000  -6.027937  -3.192955 15.323562
510   2 0.0000  -7.628750  -6.054408 19.701344
511   2 0.0000  -2.826791  10.621254  2.190216
512   2 0.0000  -4.427604   7.759801  6.567998
513   2 0.0000  -6.028418   4.898349 10.945780
514   2 0.0000  -7.629231   2.036896 15.323562
515   2 0.0000  -9.230044  -0.824557 19.701344
516   2 0.0000  -4.428085  15.851105  2.190216
517   2 0.0000  -6.028899  12.989653  6.567998
518   2 0.0000  -7.629712  10.128200 10.945780
519   2 0.0000  -9.230525   7.266747 15.323562
520   2 0.0000 -10.831339   4.405295 19.701344
521   2 0.0000  -6.029380  21.080957  2.190216
522   2 0.0000  -7.630193  18.219504  6.567998
523   2 0.0000  -9.231006  15.358051 10.945780
524   2 0.0000 -10.831820  12.496599 15.323562
525   2 0.0000 -12.432633   9.635146 19.701344
526   2 0.0000   5.845300   0.161551  2.190216
527   2 0.0000   4.244486  -2.699901  6.567998
528   2 0.0000   2.643673  -5.561354 10.945780
529   2 0.0000   1.042860  -8.422807 15.323562
530   2 0.0000  -0.557954 -11.284259 19.701344
531   2 0.0000   4.244005   5.391402  2.190216
532   2 0.0000   2.643192   2.529950  6.567998
533   2 0.0000   1.042379  -0.331503 10.945780
534   2 0.0000  -0.558435  -3.192955 15.323562
535   2 0.0000  -2.159248  -6.054408 19.701344
536   2 0.0000   2.642711  10.621254  2.190216
537   2 0.0000   1.041898   7.759801  6.567998
538   2 0.0000  -0.558916   4.898349 10.945780
539   2 0.0000  -2.159729   2.036896 15.323562
540   2 0.0000  -3.760542  -0.824557 19.701344
541   2 0.0000   1.041417  15.851105  2.190216
542   2 0.0000  -0.559397  12.989653  6.567998
543   2 0.0000  -2.160210  10.128200 10.945780
544   2 0.0000  -3.761023   7.266747 15.323562
545   2 0.0000  -5.361837   4.405295 19.701344
546   2 0.0000  -0.559878  21.080957  2.190216
547   2 0.0000  -2.160691  18.219504  6.567998
548   2 0.0000  -3.761504  15.358051 10.945780
549   2 0.0000  -5.362318  12.496599 15.323562
550   2 0.0000  -6.963131   9.635146 19.701344
551   2 0.0000  11.314802   0.161551  2.190216
552   2 0.0000   9.713988  -2.699901  6.567998
553   2 0.0000   8.113175  -5.561354 10.945780
554   2 0.0000   6.512362  -8.422807 15.323562
555   2 0.0000   4.911548 -11.284259 19.701344
556   2 0.0000   9.713507   5.391402  2.190216
557   2 0.0000   8.112694   2.529950  6.567998
558   2 0.0000   6.511881  -0.331503 10.945780
559   2 0.0000   4.911067  -3.192955 15.323562
560   2 0.0000   3.310254  -6.054408 19.701344
561   2 0.0000   8.112213  10.621254  2.190216
562   2 0.0000   6.511400   7.759801  6.567998
563   2 0.0000   4.910586   4.898349 10.945780
564   2 0.0000   3.309773   2.036896 15.323562
565   2 0.0000   1.708960  -0.824557 19.701344
566   2 0.0000   6.510919  15.851105  2.190216
567   2 0.0000   4.910105  12.989653  6.567998
568   2 0.0000   3.309292  10.128200 10.945780
569   2 0.0000   1.708479   7.266747 15.323562
570   2 0.0000   0.107665   4.405295 19.701344
571   2 0.0000   4.909625  21.080957  2.190216
572   2 0.0000   3.308811  18.219504  6.567998
573   2 0.0000   1.707998  15.358051 10.945780
574   2 0.0000   0.107185  12.496599 15.323562
575   2 0.0000  -1.493629   9.635146 19.701344
576   2 0.0000  16.784304   0.161551  2.190216
577   2 0.0000  15.183490  -2.699901  6.567998
578   2 0.0000  13.582677  -5.561354 10.945780
579   2 0.0000  11.981864  -8.422807 15.323562
580   2 0.0000  10.381050 -11.284259 19.701344
581   2 0.0000  15.183009   5.391402  2.190216
582   2 0.0000  13.582196   2.529950  6.567998
583   2 0.0000  11.981383  -0.331503 10.945780
584   2 0.0000  10.380569  -3.192955 15.323562
585   2 0.0000   8.779756  -6.054408 19.701344
586   2 0.0000  13.581715  10.621254  2.190216
587   2 0.0000  11.980902   7.759801  6.567998
588   2 0.0000  10.380088   4.898349 10.945780
589   2 0.0000   8.779275   2.036896 15.323562
590   2 0.0000   7.178462  -0.824557 19.701344
591   2 0.0000  11.980421  15.851105  2.190216
592   2 0.0000  10.379608  12.989653  6.567998
593   2 0.0000   8.778794  10.128200 10.945780
594   2 0.0000   7.177981   7.266747 15.323562
595   2 0.0000   5.577168   4.405295 19.701344
596   2 0.0000  10.379127  21.080957  2.190216
597   2 0.0000   8.778313  18.219504  6.567998
598   2 0.0000   7.177500  15.358051 10.945780
599   2 0.0000   5.576687  12.496599 15.323562
600   2 0.0000   3.975873   9.635146 19.701344
601   2 0.0000  22.253806   0.161551  2.190216
602   2 0.0000  20.652992  -2.699901  6.567998
603   2 0.0000  19.052179  -5.561354 10.945780
604   2 0.0000  17.451366  -8.422807 15.323562
605   2 0.0000  15.850552 -11.284259 19.701344
606   2 0.0000  20.652512   5.391402  2.190216
607   2 0.0000  19.051698   2.529950  6.567998
608   2 0.0000  17.450885  -0.331503 10.945780
609   2 0.0000  15.850072  -3.192955 15.323562
610   2 0.0000  14.249258  -6.054408 19.701344
611   2 0.0000  19.051217  10.621254  2.190216
612   2 0.0000  17.450404   7.759801  6.567998
613   2 0.0000  15.849591   4.898349 10.945780
614   2 0.0000  14.248777   2.036896 15.323562
615   2 0.0000  12.647964  -0.824557 19.701344
616   2 0.0000  17.449923  15.851105  2.190216
617   2 0.0000  15.849110  12.989653  6.567998
618   2 0.0000  14.248296  10.128200 10.945780
619   2 0.0000  12.647483   7.266747 15.323562
620   2 0.0000  11.046670   4.405295 19.701344
621   2 0.0000  15.848629  21.080957  2.190216
622   2 0.0000  14.247815  18.219504  6.567998
623   2 0.0000  12.647002  15.358051 10.945780
624   2 0.0000  11.046189  12.496599 15.323562
625   2 0.0000   9.445375   9.635146 19.701344
626   2 0.0000  -0.845602  -1.400692  4.139898
627   2 0.0000  -2.446416  -4.262144  8.517680
628   2 0.0000  -4.047229  -7.123597 12.895462
629   2 0.0000  -5.648042  -9.985049 17.273243
630   2 0.0000  -7.248856 -12.846502 21.651025
631   2 0.0000  -2.446897   3.829160  4.139898
632   2 0.0000  -4.047710   0.967707  8.517680
633   2 0.0000  -5.648523  -1.893745 12.895462
634   2 0.0000  -7.249337  -4.755198 17.273243
635   2 0.0000  -8.850150  -7.616651 21.651025
636   2 0.0000  -4.048191   9.059011  4.139898
637   2 0.0000  -5.649004   6.197559  8.517680
638   2 0.0000  -7.249818   3.336106 12.895462
639   2 0.0000  -8.850631   0.474653 17.273243
640   2 0.0000 -10.451444  -2.386799 21.651025
641   2 0.0000  -5.649485  14.288862  4.139898
642   2 0.0000  -7.250299  11.427410  8.517680
643   2 0.0000  -8.851112   8.565957 12.895462
644   2 0.0000 -10.451925   5.704505 17.273243
645   2 0.0000 -12.052738   2.843052 21.651025
646   2 0.0000  -7.250779  19.518714  4.139898
647   2 0.0000  -8.851593  16.657261  8.517680
648   2 0.0000 -10.452406  13.795809 12.895462
649   2 0.0000 -12.053219  10.934356 17.273243
650   2 0.0000 -13.654033   8.072904 21.651025
651   2 0.0000   4.623900  -1.400692  4.139898
652   2 0.0000   3.023086  -4.262144  8.517680
653   2 0.0000   1.422273  -7.123597 12.895462
654   2 0.0000  -0.178540  -9.985049 17.273243
655   2 0.0000  -1.779354 -12.846502 21.651025
656   2 0.0000   3.022605   3.829160  4.139898
657   2 0.0000   1.421792   0.967707  8.517680
658   2 0.0000  -0.179021  -1.893745 12.895462
659   2 0.0000  -1.779835  -4.755198 17.273243
660   2 0.0000  -3.380648  -7.616651 21.651025
661   2 0.0000   1.421311   9.059011  4.139898
662   2 0.0000  -0.179502   6.197559  8.517680
663   2 0.0000  -1.780315   3.336106 12.895462
664   2 0.0000  -3.381129   0.474653 17.273243
665   2 0.0000  -4.981942  -2.386799 21.651025
666   2 0.0000  -0.179983  14.288862  4.139898
667   2 0.0000  -1.780796  11.427410  8.517680
668   2 0.0000  -3.381610   8.565957 12.895462
669   2 0.0000  -4.982423   5.704505 17.273243
670   2 0.0000  -6.583236   2.843052 21.651025
671   2 0.0000  -1.781277  19.518714  4.139898
672   2 0.0000  -3.382091  16.657261  8.517680
673   2 0.0000  -4.982904  13.795809 12.895462
674   2 0.0000  -6.583717  10.934356 17.273243
675   2 0.0000  -8.184531   8.072904 21.651025
676   2 0.0000  10.093402  -1.400692  4.139898
677   2 0.0000   8.492588  -4.262144  8.517680
678   2 0.0000   6.891775  -7.123597 12.895462
679   2 0.0000   5.290962  -9.985049 17.273243
680   2 0.0000   3.690149 -12.846502 21.651025
681   2 0.0000   8.492108   3.829160  4.139898
682   2 0.0000   6.891294   0.967707  8.517680
683   2 0.0000   5.290481  -1.893745 12.895462
684   2 0.0000   3.689668  -4.755198 17.273243
685   2 0.0000   2.088854  -7.616651 21.651025
686   2 0.0000   6.890813   9.059011  4.139898
687   2 0.0000   5.290000   6.197559  8.517680
688   2 0.0000   3.689187   3.336106 12.895462
689   2 0.0000   2.088373   0.474653 17.273243
690   2 0.0000   0.487560  -2.386799 21.651025
691   2 0.0000   5.289519  14.288862  4.139898
692   2 0.0000   3.688706  11.427410  8.517680
693   2 0.0000   2.087892   8.565957 12.895462
694   2 0.0000   0.487079   5.704505 17.273243
695   2 0.0000  -1.113734   2.843052 21.651025
696   2 0.0000   3.688225  19.518714  4.139898
697   2 0.0000   2.087411  16.657261  8.517680
698   2 0.0000   0.486598  13.795809 12.895462
699   2 0.0000  -1.114215  10.934356 17.273243
700   2 0.0000  -2.715029   8.072904 21.651025
701   2 0.0000  15.562904  -1.400692  4.139898
702   2 0.0000  13.962091  -4.262144  8.517680
703   2 0.0000  12.361277  -7.123597 12.895462
704   2 0.0000  10.760464  -9.985049 17.273243
705   2 0.0000   9.159651 -12.846502 21.651025
706   2 0.0000  13.961610   3.829160  4.139898
707   2 0.0000  12.360796   0.967707  8.517680
708   2 0.0000  10.759983  -1.893745 12.895462
709   2 0.0000   9.159170  -4.755198 17.273243
710   2 0.0000   7.558356  -7.616651 21.651025
711   2 0.0000  12.360315   9.059011  4.139898
712   2 0.0000  10.759502   6.197559  8.517680
713   2 0.0000   9.158689   3.336106 12.895462
714   2 0.0000   7.557875   0.474653 17.273243
715   2 0.0000   5.957062  -2.386799 21.651025
716   2 0.0000  10.759021  14.288862  4.139898
717   2 0.0000   9.158208  11.427410  8.517680
718   2 0.0000   7.557394   8.565957 12.895462
719   2 0.0000   5.956581   5.704505 17.273243
720   2 0.0000   4.355768   2.843052 21.651025
721   2 0.0000   9.157727  19.518714  4.139898
722   2 0.0000   7.556913  16.657261  8.517680
723   2 0.0000   5.956100  13.795809 12.895462
724   2 0.0000   4.355287  10.934356 17.273243
725   2 0.0000   2.754473   8.072904 21.651025
726   2 0.0000  21.032406  -1.400692  4.139898
727   2 0.0000  19.431593  -4.262144  8.517680
728   2 0.0000  17.830779  -7.123597 12.895462
729   2 0.0000  16.229966  -9.985049 17.273243
730   2 0.0000  14.629153 -12.846502 21.651025
731   2 0.0000  19.431112   3.829160  4.139898
732   2 0.0000  17.830298   0.967707  8.517680
733   2 0.0000  16.229485  -1.893745 12.895462
734   2 0.0000  14.628672  -4.755198 17.273243
735   2 0.0000  13.027858  -7.616651 21.651025
736   2 0.0000  17.829817   9.059011  4.139898
737   2 0.0000  16.229004   6.197559  8.517680
738   2 0.0000  14.628191   3.336106 12.895462
739   2 0.0000  13.027377   0.474653 17.273243
740   2 0.0000  11.426564  -2.386799 21.651025
741   2 0.0000  16.228523  14.288862  4.139898
742   2 0.0000  14.627710  11.427410  8.517680
743   2 0.0000  13.026896   8.565957 12.895462
744   2 0.0000  11.426083   5.704505 17.273243
745   2 0.0000   9.825270   2.843052 21.651025
746   2 0.0000  14.627229  19.518714  4.139898
747   2 0.0000  13.026415  16.657261  8.517680
748   2 0.0000  11.425602  13.795809 12.895462
749   2 0.0000   9.824789  10.934356 17.273243
750   2 0.0000   8.223975   8.072904 21.651025
751   2 0.0000  -1.223315   1.344309  4.376456
752   2 0.0000  -2.824129  -1.517144  8.754238
753   2 0.0000  -4.424942  -4.378596 13.132020
754   2 0.0000  -6.025755  -7.240049 17.509802
755   2 0.0000  -7.626569 -10.101502 21.887584
756   2 0.0000  -2.824610   6.574160  4.376456
757   2 0.0000  -4.425423   3.712708  8.754238
758   2 0.0000  -6.026236   0.851255 13.132020
759   2 0.0000  -7.627050  -2.010198 17.509802
760   2 0.0000  -9.227863  -4.871650 21.887584
761   2 0.0000  -4.425904  11.804012  4.376456
762   2 0.0000  -6.026717   8.942559  8.754238
763   2 0.0000  -7.627531   6.081106 13.132020
764   2 0.0000  -9.228344   3.219654 17.509802
765   2 0.0000 -10.829157   0.358201 21.887584
766   2 0.0000  -6.027198  17.033863  4.376456
767   2 0.0000  -7.628012  14.172410  8.754238
768   2 0.0000  -9.228825  11.310958 13.132020
769   2 0.0000 -10.829638   8.449505 17.509802
770   2 0.0000 -12.430452   5.588053 21.887584
771   2 0.0000  -7.628493  22.263714  4.376456
772   2 0.0000  -9.229306  19.402262  8.754238
773   2 0.0000 -10.830119  16.540809 13.132020
774   2 0.0000 -12.430933  13.679357 17.509802
775   2 0.0000 -14.031746  10.817904 21.887584
776   2 0.0000   4.246187   1.344309  4.376456
777   2 0.0000   2.645373  -1.517144  8.754238
778   2 0.0000   1.044560  -4.378596 13.132020
779   2 0.0000  -0.556253  -7.240049 17.509802
780   2 0.0000  -2.157067 -10.101502 21.887584
781   2 0.0000   2.644892   6.574160  4.376456
782   2 0.0000   1.044079   3.712708  8.754238
783   2 0.0000  -0.556734   0.851255 13.132020
784   2 0.0000  -2.157548  -2.010198 17.509802
785   2 0.0000  -3.758361  -4.871650 21.887584
786   2 0.0000   1.043598  11.804012  4.376456
787   2 0.0000  -0.557215   8.942559  8.754238
788   2 0.0000  -2.158029   6.081106 13.132020
789   2 0.0000  -3.758842   3.219654 17.509802
790   2 0.0000  -5.359655   0.358201 21.887584
791   2 0.0000  -0.557696  17.033863  4.376456
792   2 0.0000  -2.158510  14.172410  8.754238
793   2 0.0000  -3.759323  11.310958 13.132020
794   2 0.0000  -5.360136   8.449505 17.509802
795   2 0.0000  -6.960949   5.588053 21.887584
796   2 0.0000  -2.158990  22.263714  4.376456
797   2 0.0000  -3.759804  19.402262  8.754238
798   2 0.0000  -5.360617  16.540809 13.132020
799   2 0.0000  -6.961430  13.679357 17.509802
800   2 0.0000  -8.562244  10.817904 21.887584
801   2 0.0000   9.715689   1.344309  4.376456
802   2 0.0000   8.114875  -1.517144  8.754238
803   2 0.0000   6.514062  -4.378596 13.132020
804   2 0.0000   4.913249  -7.240049 17.509802
805   2 0.0000   3.312435 -10.101502 21.887584
806   2 0.0000   8.114394   6.574160  4.376456
807   2 0.0000   6.513581   3.712708  8.754238
808   2 0.0000   4.912768   0.851255 13.132020
809   2 0.0000   3.311954  -2.010198 17.509802
810   2 0.0000   1.711141  -4.871650 21.887584
811   2 0.0000   6.513100  11.804012  4.376456
812   2 0.0000   4.912287   8.942559  8.754238
813   2 0.0000   3.311474   6.081106 13.132020
814   2 0.0000   1.710660   3.219654 17.509802
815   2 0.0000   0.109847   0.358201 21.887584
816   2 0.0000   4.911806  17.033863  4.376456
817   2 0.0000   3.310993  14.172410  8.754238
818   2 0.0000   1.710179  11.310958 13.132020
819   2 0.0000   0.109366   8.449505 17.509802
820   2 0.0000  -1.491447   5.588053 21.887584
821   2 0.0000   3.310512  22.263714  4.376456
822   2 0.0000   1.709698  19.402262  8.754238
823   2 0.0000   0.108885  16.540809 13.132020
824   2 0.0000  -1.491928  13.679357 17.509802
825   2 0.0000  -3.092742  10.817904 21.887584
826   2 0.0000  15.185191   1.344309  4.376456
827   2 0.0000  13.584377  -1.517144  8.754238
828   2 0.0000  11.983564  -4.378596 13.132020
829   2 0.0000  10.382751  -7.240049 17.509802
830   2 0.0000   8.781938 -10.101502 21.887584
831   2 0.0000  13.583897   6.574160  4.376456
832   2 0.0000  11.983083   3.712708  8.754238
833   2 0.0000  10.382270   0.851255 13.132020
834   2 0.0000   8.781457  -2.010198 17.509802
835   2 0.0000   7.180643  -4.871650 21.887584
836   2 0.0000  11.982602  11.804012  4.376456
837   2 0.0000  10.381789   8.942559  8.754238
838   2 0.0000   8.780976   6.081106 13.132020
839   2 0.0000   7.180162   3.219654 17.509802
840   2 0.0000   5.579349   0.358201 21.887584
841   2 0.0000  10.381308  17.033863  4.376456
842   2 0.0000   8.780495  14.172410  8.754238
843   2 0.0000   7.179681  11.310958 13.132020
844   2 0.0000   5.578868   8.449505 17.509802
845   2 0.0000   3.978055   5.588053 21.887584
846   2 0.0000   8.780014  22.263714  4.376456
847   2 0.0000   7.179200  19.402262  8.754238
848   2 0.0000   5.578387  16.540809 13.132020
849   2 0.0000   3.977574  13.679357 17.509802
850   2 0.0000   2.376760  10.817904 21.887584
851   2 0.0000  20.654693   1.344309  4.376456
852   2 0.0000  19.053880  -1.517144  8.754238
853   2 0.0000  17.453066  -4.378596 13.132020
854   2 0.0000  15.852253  -7.240049 17.509802
855   2 0.0000  14.251440 -10.101502 21.887584
856   2 0.0000  19.053399   6.574160  4.376456
857   2 0.0000  17.452585   3.712708  8.754238
858   2 0.0000  15.851772   0.851255 13.132020
859   2 0.0000  14.250959  -2.010198 17.509802
860   2 0.0000  12.650145  -4.871650 21.887584
861   2 0.0000  17.452104  11.804012  4.376456
862   2 0.0000  15.851291   8.942559  8.754238
863   2 0.0000  14.250478   6.081106 13.132020
864   2 0.0000  12.649664   3.219654 17.509802
865   2 0.0000  11.048851   0.358201 21.887584
866   2 0.0000  15.850810  17.033863  4.376456
867   2 0.0000  14.249997  14.172410  8.754238
868   2 0.0000  12.649183  11.310958 13.132020
869   2 0.0000  11.048370   8.449505 17.509802
870   2 0.0000   9.447557   5.588053 21.887584
871   2 0.0000  14.249516  22.263714  4.376456
872   2 0.0000  12.648702  19.402262  8.754238
873   2 0.0000  11.047889  16.540809 13.132020
874   2 0.0000   9.447076  13.679357 17.509802
875   2 0.0000   7.846262  10.817904 21.887584
876   2 0.0000   3.109994  -0.280945  2.426776
877   2 0.0000   1.509181  -3.142398  6.804558
878   2 0.0000  -0.091633  -6.003850 11.182340
879   2 0.0000  -1.692446  -8.865303 15.560122
880   2 0.0000  -3.293259 -11.726756 19.937904
881   2 0.0000   1.508700   4.948906  2.426776
882   2 0.0000  -0.092114   2.087454  6.804558
883   2 0.0000  -1.692927  -0.773999 11.182340
884   2 0.0000  -3.293740  -3.635452 15.560122
885   2 0.0000  -4.894554  -6.496904 19.937904
886   2 0.0000  -0.092595  10.178757  2.426776
887   2 0.0000  -1.693408   7.317305  6.804558
888   2 0.0000  -3.294221   4.455852 11.182340
889   2 0.0000  -4.895035   1.594400 15.560122
890   2 0.0000  -6.495848  -1.267053 19.937904
891   2 0.0000  -1.693889  15.408609  2.426776
892   2 0.0000  -3.294702  12.547156  6.804558
893   2 0.0000  -4.895516   9.685704 11.182340
894   2 0.0000  -6.496329   6.824251 15.560122
895   2 0.0000  -8.097142   3.962799 19.937904
896   2 0.0000  -3.295183  20.638460  2.426776
897   2 0.0000  -4.895997  17.777008  6.804558
898   2 0.0000  -6.496810  14.915555 11.182340
899   2 0.0000  -8.097623  12.054102 15.560122
900   2 0.0000  -9.698437   9.192650 19.937904
901   2 0.0000   8.579496  -0.280945  2.426776
902   2 0.0000   6.978683  -3.142398  6.804558
903   2 0.0000   5.377869  -6.003850 11.182340
904   2 0.0000   3.777056  -8.865303 15.560122
905   2 0.0000   2.176243 -11.726756 19.937904
906   2 0.0000   6.978202   4.948906  2.426776
907   2 0.0000   5.377388   2.087454  6.804558
908   2 0.0000   3.776575  -0.773999 11.182340
909   2 0.0000   2.175762  -3.635452 15.560122
910   2 0.0000   0.574948  -6.496904 19.937904
911   2 0.0000   5.376907  10.178757  2.426776
912   2 0.0000   3.776094   7.317305  6.804558
913   2 0.0000   2.175281   4.455852 11.182340
914   2 0.0000   0.574467   1.594400 15.560122
915   2 0.0000  -1.026346  -1.267053 19.937904
916   2 0.0000   3.775613  15.408609  2.426776
917   2 0.0000   2.174800  12.547156  6.804558
918   2 0.0000   0.573986   9.685704 11.182340
919   2 0.0000  -1.026827   6.824251 15.560122
920   2 0.0000  -2.627640   3.962799 19.937904
921   2 0.0000   2.174319  20.638460  2.426776
922   2 0.0000   0.573505  17.777008  6.804558
923   2 0.0000  -1.027308  14.915555 11.182340
924   2 0.0000  -2.628121  12.054102 15.560122
925   2 0.0000  -4.228935   9.192650 19.937904
926   2 0.0000  14.048998  -0.280945  2.426776
927   2 0.0000  12.448185  -3.142398  6.804558
928   2 0.0000  10.847371  -6.003850 11.182340
929   2 0.0000   9.246558  -8.865303 15.560122
930   2 0.0000   7.645745 -11.726756 19.937904
931   2 0.0000  12.447704   4.948906  2.426776
932   2 0.0000  10.846890   2.087454  6.804558
933   2 0.0000   9.246077  -0.773999 11.182340
934   2 0.0000   7.645264  -3.635452 15.560122
935   2 0.0000   6.044450  -6.496904 19.937904
936   2 0.0000  10.846409  10.178757  2.426776
937   2 0.0000   9.245596   7.317305  6.804558
938   2 0.0000   7.644783   4.455852 11.182340
939   2 0.0000   6.043969   1.594400 15.560122
940   2 0.0000   4.443156  -1.267053 19.937904
941   2 0.0000   9.245115  15.408609  2.426776
942   2 0.0000   7.644302  12.547156  6.804558
943   2 0.0000   6.043488   9.685704 11.182340
944   2 0.0000   4.442675   6.824251 15.560122
945   2 0.0000   2.841862   3.962799 19.937904
946   2 0.0000   7.643821  20.638460  2.426776
947   2 0.0000   6.043007  17.777008  6.804558
948   2 0.0000   4.442194  14.915555 11.182340
949   2 0.0000   2.841381  12.054102 15.560122
950   2 0.0000   1.240567   9.192650 19.937904
951   2 0.0000  19.518500  -0.280945  2.426776
952   2 0.0000  17.917687  -3.142398  6.804558
953   2 0.0000  16.316873  -6.003850 11.182340
954   2 0.0000  14.716060  -8.865303 15.560122
955   2 0.0000  13.115247 -11.726756 19.937904
956   2 0.0000  17.917206   4.948906  2.426776
957   2 0.0000  16.316392   2.087454  6.804558
958   2 0.0000  14.715579  -0.773999 11.182340
959   2 0.0000  13.114766  -3.635452 15.560122
960   2 0.0000  11.513952  -6.496904 19.937904
961   2 0.0000  16.315911  10.178757  2.426776
962   2 0.0000  14.715098   7.317305  6.804558
963   2 0.0000  13.114285   4.455852 11.182340
964   2 0.0000  11.513471   1.594400 15.560122
965   2 0.0000   9.912658  -1.267053 19.937904
966   2 0.0000  14.714617  15.408609  2.426776
967   2 0.0000  13.113804  12.547156  6.804558
968   2 0.0000  11.512990   9.685704 11.182340
969   2 0.0000   9.912177   6.824251 15.560122
970   2 0.0000   8.311364   3.962799 19.937904
971   2 0.0000  13.113323  20.638460  2.426776
972   2 0.0000  11.512510  17.777008  6.804558
973   2 0.0000   9.911696  14.915555 11.182340
974   2 0.0000   8.310883  12.054102 15.560122
975   2 0.0000   6.710070   9.192650 19.937904
976   2 0.0000  24.988002  -0.280945  2.426776
977   2 0.0000  23.387189  -3.142398  6.804558
978   2 0.0000  21.786375  -6.003850 11.182340
979   2 0.0000  20.185562  -8.865303 15.560122
980   2 0.0000  18.584749 -11.726756 19.937904
981   2 0.0000  23.386708   4.948906  2.426776
982   2 0.0000  21.785894   2.087454  6.804558
983   2 0.0000  20.185081  -0.773999 11.182340
984   2 0.0000  18.584268  -3.635452 15.560122
985   2 0.0000  16.983454  -6.496904 19.937904
986   2 0.0000  21.785414  10.178757  2.426776
987   2 0.0000  20.184600   7.317305  6.804558
988   2 0.0000  18.583787   4.455852 11.182340
989   2 0.0000  16.982974   1.594400 15.560122
990   2 0.0000  15.382160  -1.267053 19.937904
991   2 0.0000  20.184119  15.408609  2.426776
992   2 0.0000  18.583306  12.547156  6.804558
993   2 0.0000  16.982493   9.685704 11.182340
994   2 0.0000  15.381679   6.824251 15.560122
995   2 0.0000  13.780866   3.962799 19.937904
996   2 0.0000  18.582825  20.638460  2.426776
997   2 0.0000  16.982012  17.777008  6.804558
998   2 0.0000  15.381198  14.915555 11.182340
999   2 0.0000  13.780385  12.054102 15.560122
1000  2 0.0000  12.179572   9.192650 19.937904
1001  2 0.0000  -0.842598   2.649342  1.951001
1002  2 0.0000  -2.443411  -0.212111  6.328782
1003  2 0.0000  -4.044225  -3.073563 10.706564
1004  2 0.0000  -5.645038  -5.935016 15.084346
1005  2 0.0000  -7.245851  -8.796468 19.462128
1006  2 0.0000  -2.443892   7.879193  1.951001
1007  2 0.0000  -4.044706   5.017741  6.328782
1008  2 0.0000  -5.645519   2.156288 10.706564
1009  2 0.0000  -7.246332  -0.705165 15.084346
1010  2 0.0000  -8.847146  -3.566617 19.462128
1011  2 0.0000  -4.045187  13.109045  1.951001
1012  2 0.0000  -5.646000  10.247592  6.328782
1013  2 0.0000  -7.246813   7.386139 10.706564
1014  2 0.0000  -8.847627   4.524687 15.084346
1015  2 0.0000 -10.448440   1.663234 19.462128
1016  2 0.0000  -5.646481  18.338896  1.951001
1017  2 0.0000  -7.247294  15.477443  6.328782
1018  2 0.0000  -8.848108  12.615991 10.706564
1019  2 0.0000 -10.448921   9.754538 15.084346
1020  2 0.0000 -12.049734   6.893086 19.462128
1021  2 0.0000  -7.247775  23.568747  1.951001
1022  2 0.0000  -8.848589  20.707295  6.328782
1023  2 0.0000 -10.449402  17.845842 10.706564
1024  2 0.0000 -12.050215  14.984390 15.084346
1025  2 0.0000 -13.651029  12.122937 19.462128
1026  2 0.0000   4.626904   2.649342  1.951001
1027  2 0.0000   3.026091  -0.212111  6.328782
1028  2 0.0000   1.425277  -3.073563 10.706564
1029  2 0.0000  -0.175536  -5.935016 15.084346
1030  2 0.0000  -1.776349  -8.796468 19.462128
1031  2 0.0000   3.025610   7.879193  1.951001
1032  2 0.0000   1.424796   5.017741  6.328782
1033  2 0.0000  -0.176017   2.156288 10.706564
1034  2 0.0000  -1.776830  -0.705165 15.084346
1035  2 0.0000  -3.377644  -3.566617 19.462128
1036  2 0.0000   1.424315  13.109045  1.951001
1037  2 0.0000  -0.176498  10.247592  6.328782
1038  2 0.0000  -1.777311   7.386139 10.706564
1039  2 0.0000  -3.378125   4.524687 15.084346
1040  2 0.0000  -4.978938   1.663234 19.462128
1041  2 0.0000  -0.176979  18.338896  1.951001
1042  2 0.0000  -1.777792  15.477443  6.328782
1043  2 0.0000  -3.378606  12.615991 10.706564
1044  2 0.0000  -4.979419   9.754538 15.084346
1045  2 0.0000  -6.580232   6.893086 19.462128
1046  2 0.0000  -1.778273  23.568747  1.951001
1047  2 0.0000  -3.379087  20.707295  6.328782
1048  2 0.0000  -4.979900  17.845842 10.706564
1049  2 0.0000  -6.580713  14.984390 15.084346
1050  2 0.0000  -8.181527  12.122937 19.462128
1051  2 0.0000  10.096406   2.649342  1.951001
1052  2 0.0000   8.495593  -0.212111  6.328782
1053  2 0.0000   6.894779  -3.073563 10.706564
1054  2 0.0000   5.293966  -5.935016 15.084346
1055  2 0.0000   3.693153  -8.796468 19.462128
1056  2 0.0000   8.495112   7.879193  1.951001
1057  2 0.0000   6.894298   5.017741  6.328782
1058  2 0.0000   5.293485   2.156288 10.706564
1059  2 0.0000   3.692672  -0.705165 15.084346
1060  2 0.0000   2.091858  -3.566617 19.462128
1061  2 0.0000   6.893817  13.109045  1.951001
1062  2 0.0000   5.293004  10.247592  6.328782
1063  2 0.0000   3.692191   7.386139 10.706564
1064  2 0.0000   2.091377   4.524687 15.084346
1065  2 0.0000   0.490564   1.663234 19.462128
1066  2 0.0000   5.292523  18.338896  1.951001
1067  2 0.0000   3.691710  15.477443  6.328782
1068  2 0.0000   2.090896  12.615991 10.706564
1069  2 0.0000   0.490083   9.754538 15.084346
1070  2 0.0000  -1.110730   6.893086 19.462128
1071  2 0.0000   3.691229  23.568747  1.951001
1072  2 0.0000   2.090416  20.707295  6.328782
1073  2 0.0000   0.489602  17.845842 10.706564
1074  2 0.0000  -1.111211  14.984390 15.084346
1075  2 0.0000  -2.712024  12.122937 19.462128
1076  2 0.0000  15.565908   2.649342  1.951001
1077  2 0.0000  13.965095  -0.212111  6.328782
1078  2 0.0000  12.364281  -3.073563 10.706564
1079  2 0.0000  10.763468  -5.935016 15.084346
1080  2 0.0000   9.162655  -8.796468 19.462128
1081  2 0.0000  13.964614   7.879193  1.951001
1082  2 0.0000  12.363800   5.017741  6.328782
1083  2 0.0000  10.762987   2.156288 10.706564
1084  2 0.0000   9.162174  -0.705165 15.084346
1085  2 0.0000   7.561360  -3.566617 19.462128
1086  2 0.0000  12.363319  13.109045  1.951001
1087  2 0.0000  10.762506  10.247592  6.328782
1088  2 0.0000   9.161693   7.386139 10.706564
1089  2 0.0000   7.560879   4.524687 15.084346
1090  2 0.0000   5.960066   1.663234 19.462128
1091  2 0.0000  10.762025  18.338896  1.951001
1092  2 0.0000   9.161212  15.477443  6.328782
1093  2 0.0000   7.560399  12.615991 10.706564
1094  2 0.0000   5.959585   9.754538 15.084346
1095  2 0.0000   4.358772   6.893086 19.462128
1096  2 0.0000   9.160731  23.568747  1.951001
1097  2 0.0000   7.559918  20.707295  6.328782
1098  2 0.0000   5.959104  17.845842 10.706564
1099  2 0.0000   4.358291  14.984390 15.084346
1100  2 0.0000   2.757478  12.122937 19.462128
1101  2 0.0000  21.035410   2.649342  1.951001
1102  2 0.0000  19.434597  -0.212111  6.328782
1103  2 0.0000  17.833783  -3.073563 10.706564
1104  2 0.0000  16.232970  -5.935016 15.084346
1105  2 0.0000  14.632157  -8.796468 19.462128
1106  2 0.0000  19.434116   7.879193  1.951001
1107  2 0.0000  17.833303   5.017741  6.328782
1108  2 0.0000  16.232489   2.156288 10.706564
1109  2 0.0000  14.631676  -0.705165 15.084346
1110  2 0.0000  13.030863  -3.566617 19.462128
1111  2 0.0000  17.832822  13.109045  1.951001
1112  2 0.0000  16.232008  10.247592  6.328782
1113  2 0.0000  14.631195   7.386139 10.706564
1114  2 0.0000  13.030382   4.524687 15.084346
1115  2 0.0000  11.429568   1.663234 19.462128
1116  2 0.0000  16.231527  18.338896  1.951001
1117  2 0.0000  14.630714  15.477443  6.328782
1118  2 0.0000  13.029901  12.615991 10.706564
1119  2 0.0000  11.429087   9.754538 15.084346
1120  2 0.0000   9.828274   6.893086 19.462128
1121  2 0.0000  14.630233  23.568747  1.951001
1122  2 0.0000  13.029420  20.707295  6.328782
1123  2 0.0000  11.428606  17.845842 10.706564
1124  2 0.0000   9.827793  14.984390 15.084346
1125  2 0.0000   8.226980  12.122937 19.462128
1126  2 0.0000   3.112998   3.769085  0.237882
1127  2 0.0000   1.512185   0.907633  4.615663
1128  2 0.0000  -0.088628  -1.953820  8.993445
1129  2 0.0000  -1.689442  -4.815273 13.371227
1130  2 0.0000  -3.290255  -7.676725 17.749009
1131  2 0.0000   1.511704   8.998937  0.237882
1132  2 0.0000  -0.089109   6.137484  4.615663
1133  2 0.0000  -1.689922   3.276031  8.993445
1134  2 0.0000  -3.290736   0.414579 13.371227
1135  2 0.0000  -4.891549  -2.446874 17.749009
1136  2 0.0000  -0.089590  14.228788  0.237882
1137  2 0.0000  -1.690403  11.367335  4.615663
1138  2 0.0000  -3.291217   8.505883  8.993445
1139  2 0.0000  -4.892030   5.644430 13.371227
1140  2 0.0000  -6.492843   2.782978 17.749009
1141  2 0.0000  -1.690884  19.458639  0.237882
1142  2 0.0000  -3.291698  16.597187  4.615663
1143  2 0.0000  -4.892511  13.735734  8.993445
1144  2 0.0000  -6.493324  10.874282 13.371227
1145  2 0.0000  -8.094138   8.012829 17.749009
1146  2 0.0000  -3.292179  24.688491  0.237882
1147  2 0.0000  -4.892992  21.827038  4.615663
1148  2 0.0000  -6.493805  18.965586  8.993445
1149  2 0.0000  -8.094619  16.104133 13.371227
1150  2 0.0000  -9.695432  13.242680 17.749009
1151  2 0.0000   8.582501   3.769085  0.237882
1152  2 0.0000   6.981687   0.907633  4.615663
1153  2 0.0000   5.380874  -1.953820  8.993445
1154  2 0.0000   3.780061  -4.815273 13.371227
1155  2 0.0000   2.179247  -7.676725 17.749009
1156  2 0.0000   6.981206   8.998937  0.237882
1157  2 0.0000   5.380393   6.137484  4.615663
1158  2 0.0000   3.779580   3.276031  8.993445
1159  2 0.0000   2.178766   0.414579 13.371227
1160  2 0.0000   0.577953  -2.446874 17.749009
1161  2 0.0000   5.379912  14.228788  0.237882
1162  2 0.0000   3.779099  11.367335  4.615663
1163  2 0.0000   2.178285   8.505883  8.993445
1164  2 0.0000   0.577472   5.644430 13.371227
1165  2 0.0000  -1.023341   2.782978 17.749009
1166  2 0.0000   3.778618  19.458639  0.237882
1167  2 0.0000   2.177804  16.597187  4.615663
1168  2 0.0000   0.576991  13.735734  8.993445
1169  2 0.0000  -1.023822  10.874282 13.371227
1170  2 0.0000  -2.624636   8.012829 17.749009
1171  2 0.0000   2.177323  24.688491  0.237882
1172  2 0.0000   0.576510  21.827038  4.615663
1173  2 0.0000  -1.024303  18.965586  8.993445
1174  2 0.0000  -2.625117  16.104133 13.371227
1175  2 0.0000  -4.225930  13.242680 17.749009
1176  2 0.0000  14.052003   3.769085  0.237882
1177  2 0.0000  12.451189   0.907633  4.615663
1178  2 0.0000  10.850376  -1.953820  8.993445
1179  2 0.0000   9.249563  -4.815273 13.371227
1180  2 0.0000   7.648749  -7.676725 17.749009
1181  2 0.0000  12.450708   8.998937  0.237882
1182  2 0.0000  10.849895   6.137484  4.615663
1183  2 0.0000   9.249082   3.276031  8.993445
1184  2 0.0000   7.648268   0.414579 13.371227
1185  2 0.0000   6.047455  -2.446874 17.749009
1186  2 0.0000  10.849414  14.228788  0.237882
1187  2 0.0000   9.248601  11.367335  4.615663
1188  2 0.0000   7.647787   8.505883  8.993445
1189  2 0.0000   6.046974   5.644430 13.371227
1190  2 0.0000   4.446161   2.782978 17.749009
1191  2 0.0000   9.248120  19.458639  0.237882
1192  2 0.0000   7.647306  16.597187  4.615663
1193  2 0.0000   6.046493  13.735734  8.993445
1194  2 0.0000   4.445680  10.874282 13.371227
1195  2 0.0000   2.844866   8.012829 17.749009
1196  2 0.0000   7.646825  24.688491  0.237882
1197  2 0.0000   6.046012  21.827038  4.615663
1198  2 0.0000   4.445199  18.965586  8.993445
1199  2 0.0000   2.844385  16.104133 13.371227
1200  2 0.0000   1.243572  13.242680 17.749009
1201  2 0.0000  19.521505   3.769085  0.237882
1202  2 0.0000  17.920691   0.907633  4.615663
1203  2 0.0000  16.319878  -1.953820  8.993445
1204  2 0.0000  14.719065  -4.815273 13.371227
1205  2 0.0000  13.118251  -7.676725 17.749009
1206  2 0.0000  17.920210   8.998937  0.237882
1207  2 0.0000  16.319397   6.137484  4.615663
1208  2 0.0000  14.718584   3.276031  8.993445
1209  2 0.0000  13.117770   0.414579 13.371227
1210  2 0.0000  11.516957  -2.446874 17.749009
1211  2 0.0000  16.318916  14.228788  0.237882
1212  2 0.0000  14.718103  11.367335  4.615663
1213  2 0.0000  13.117289   8.505883  8.993445
1214  2 0.0000  11.516476   5.644430 13.371227
1215  2 0.0000   9.915663   2.782978 17.749009
1216  2 0.0000  14.717622  19.458639  0.237882
1217  2 0.0000  13.116808  16.597187  4.615663
1218  2 0.0000  11.515995  13.735734  8.993445
1219  2 0.0000   9.915182  10.874282 13.371227
1220  2 0.0000   8.314368   8.012829 17.749009
1221  2 0.0000  13.116327  24.688491  0.237882
1222  2 0.0000  11.515514  21.827038  4.615663
1223  2 0.0000   9.914701  18.965586  8.993445
1224  2 0.0000   8.313887  16.104133 13.371227
1225  2 0.0000   6.713074  13.242680 17.749009
1226  2 0.0000  24.991007   3.769085  0.237882
1227  2 0.0000  23.390193   0.907633  4.615663
1228  2 0.0000  21.789380  -1.953820  8.993445
1229  2 0.0000  20.188567  -4.815273 13.371227
1230  2 0.0000  18.587753  -7.676725 17.749009
1231  2 0.0000  23.389712   8.998937  0.237882
1232  2 0.0000  21.788899   6.137484  4.615663
1233  2 0.0000  20.188086   3.276031  8.993445
1234  2 0.0000  18.587272   0.414579 13.371227
1235  2 0.0000  16.986459  -2.446874 17.749009
1236  2 0.0000  21.788418  14.228788  0.237882
1237  2 0.0000  20.187605  11.367335  4.615663
1238  2 0.0000  18.586791   8.505883  8.993445
1239  2 0.0000  16.985978   5.644430 13.371227
1240  2 0.0000  15.385165   2.782978 17.749009
1241  2 0.0000  20.187124  19.458639  0.237882
1242  2 0.0000  18.586311  16.597187  4.615663
1243  2 0.0000  16.985497  13.735734  8.993445
1244  2 0.0000  15.384684  10.874282 13.371227
1245  2 0.0000  13.783871   8.012829 17.749009
1246  2 0.0000  18.585830  24.688491  0.237882
1247  2 0.0000  16.985016  21.827038  4.615663
1248  2 0.0000  15.384203  18.965586  8.993445
1249  2 0.0000  13.783390  16.104133 13.371227
1250  2 0.0000  12.182576  13.242680 17.749009
1251  2 0.0000   3.490708   1.024093  0.001330
1252  2 0.0000   1.889895  -1.837360  4.379112
1253  2 0.0000   0.289081  -4.698813  8.756894
1254  2 0.0000  -1.311732  -7.560265 13.134676
1255  2 0.0000  -2.912545 -10.421718 17.512458
1256  2 0.0000   1.889414   6.253944  0.001330
1257  2 0.0000   0.288600   3.392491  4.379112
1258  2 0.0000  -1.312213   0.531039  8.756894
1259  2 0.0000  -2.913026  -2.330414 13.134676
1260  2 0.0000  -4.513840  -5.191866 17.512458
1261  2 0.0000   0.288119  11.483795  0.001330
1262  2 0.0000  -1.312694   8.622343  4.379112
1263  2 0.0000  -2.913507   5.760890  8.756894
1264  2 0.0000  -4.514321   2.899438 13.134676
1265  2 0.0000  -6.115134   0.037985 17.512458
1266  2 0.0000  -1.313175  16.713647  0.001330
1267  2 0.0000  -2.913988  13.852194  4.379112
1268  2 0.0000  -4.514801  10.990742  8.756894
1269  2 0.0000  -6.115615   8.129289 13.134676
1270  2 0.0000  -7.716428   5.267836 17.512458
1271  2 0.0000  -2.914469  21.943498  0.001330
1272  2 0.0000  -4.515282  19.082046  4.379112
1273  2 0.0000  -6.116096  16.220593  8.756894
1274  2 0.0000  -7.716909  13.359140 13.134676
1275  2 0.0000  -9.317722  10.497688 17.512458
1276  2 0.0000   8.960210   1.024093  0.001330
1277  2 0.0000   7.359397  -1.837360  4.379112
1278  2 0.0000   5.758583  -4.698813  8.756894
1279  2 0.0000   4.157770  -7.560265 13.134676
1280  2 0.0000   2.556957 -10.421718 17.512458
1281  2 0.0000   7.358916   6.253944  0.001330
1282  2 0.0000   5.758102   3.392491  4.379112
1283  2 0.0000   4.157289   0.531039  8.756894
1284  2 0.0000   2.556476  -2.330414 13.134676
1285  2 0.0000   0.955662  -5.191866 17.512458
1286  2 0.0000   5.757622  11.483795  0.001330
1287  2 0.0000   4.156808   8.622343  4.379112
1288  2 0.0000   2.555995   5.760890  8.756894
1289  2 0.0000   0.955182   2.899438 13.134676
1290  2 0.0000  -0.645632   0.037985 17.512458
1291  2 0.0000   4.156327  16.713647  0.001330
1292  2 0.0000   2.555514  13.852194  4.379112
1293  2 0.0000   0.954701  10.990742  8.756894
1294  2 0.0000  -0.646113   8.129289 13.134676
1295  2 0.0000  -2.246926   5.267836 17.512458
1296  2 0.0000   2.555033  21.943498  0.001330
1297  2 0.0000   0.954220  19.082046  4.379112
1298  2 0.0000  -0.646594  16.220593  8.756894
1299  2 0.0000  -2.247407  13.359140 13.134676
1300  2 0.0000  -3.848220  10.497688 17.512458
1301  2 0.0000  14.429712   1.024093  0.001330
1302  2 0.0000  12.828899  -1.837360  4.379112
1303  2 0.0000  11.228086  -4.698813  8.756894
1304  2 0.0000   9.627272  -7.560265 13.134676
1305  2 0.0000   8.026459 -10.421718 17.512458
1306  2 0.0000  12.828418   6.253944  0.001330
1307  2 0.0000  11.227605   3.392491  4.379112
1308  2 0.0000   9.626791   0.531039  8.756894
1309  2 0.0000   8.025978  -2.330414 13.134676
1310  2 0.0000   6.425165  -5.191866 17.512458
1311  2 0.0000  11.227124  11.483795  0.001330
1312  2 0.0000   9.626310   8.622343  4.379112
1313  2 0.0000   8.025497   5.760890  8.756894
1314  2 0.0000   6.424684   2.899438 13.134676
1315  2 0.0000   4.823870   0.037985 17.512458
1316  2 0.0000   9.625829  16.713647  0.001330
1317  2 0.0000   8.025016  13.852194  4.379112
1318  2 0.0000   6.424203  10.990742  8.756894
1319  2 0.0000   4.823389   8.129289 13.134676
1320  2 0.0000   3.222576   5.267836 17.512458
1321  2 0.0000   8.024535  21.943498  0.001330
1322  2 0.0000   6.423722  19.082046  4.379112
1323  2 0.0000   4.822908  16.220593  8.756894
1324  2 0.0000   3.222095  13.359140 13.134676
1325  2 0.0000   1.621282  10.497688 17.512458
1326  2 0.0000  19.899214   1.024093  0.001330
1327  2 0.0000  18.298401  -1.837360  4.379112
1328  2 0.0000  16.697588  -4.698813  8.756894
1329  2 0.0000  15.096774  -7.560265 13.134676
1330  2 0.0000  13.495961 -10.421718 17.512458
1331  2 0.0000  18.297920   6.253944  0.001330
1332  2 0.0000  16.697107   3.392491  4.379112
1333  2 0.0000  15.096293   0.531039  8.756894
1334  2 0.0000  13.495480  -2.330414 13.134676
1335  2 0.0000  11.894667  -5.191866 17.512458
1336  2 0.0000  16.696626  11.483795  0.001330
1337  2 0.0000  15.095812   8.622343  4.379112
1338  2 0.0000  13.494999   5.760890  8.756894
1339  2 0.0000  11.894186   2.899438 13.134676
1340  2 0.0000  10.293372   0.037985 17.512458
1341  2 0.0000  15.095331  16.713647  0.001330
1342  2 0.0000  13.494518  13.852194  4.379112
1343  2 0.0000  11.893705  10.990742  8.756894
1344  2 0.0000  10.292891   8.129289 13.134676
1345  2 0.0000   8.692078   5.267836 17.512458
1346  2 0.0000  13.494037  21.943498  0.001330
1347  2 0.0000  11.893224  19.082046  4.379112
1348  2 0.0000  10.292410  16.220593  8.756894
1349  2 0.0000   8.691597  13.359140 13.134676
1350  2 0.0000   7.090784  10.497688 17.512458
1351  2 0.0000  25.368716   1.024093  0.001330
1352  2 0.0000  23.767903  -1.837360  4.379112
1353  2 0.0000  22.167090  -4.698813  8.756894
1354  2 0.0000  20.566276  -7.560265 13.134676
1355  2 0.0000  18.965463 -10.421718 17.512458
1356  2 0.0000  23.767422   6.253944  0.001330
1357  2 0.0000  22.166609   3.392491  4.379112
1358  2 0.0000  20.565795   0.531039  8.756894
1359  2 0.0000  18.964982  -2.330414 13.134676
1360  2 0.0000  17.364169  -5.191866 17.512458
1361  2 0.0000  22.166128  11.483795  0.001330
1362  2 0.0000  20.565314   8.622343  4.379112
1363  2 0.0000  18.964501   5.760890  8.756894
1364  2 0.0000  17.363688   2.899438 13.134676
1365  2 0.0000  15.762874   0.037985 17.512458
1366  2 0.0000  20.564833  16.713647  0.001330
1367  2 0.0000  18.964020  13.852194  4.379112
1368  2 0.0000  17.363207  10.990742  8.756894
1369  2 0.0000  15.762393   8.129289 13.134676
1370  2 0.0000  14.161580   5.267836 17.512458
1371  2 0.0000  18.963539  21.943498  0.001330
1372  2 0.0000  17.362726  19.082046  4.379112
1373  2 0.0000  15.761912  16.220593  8.756894
1374  2 0.0000  14.161099  13.359140 13.134676
1375  2 0.0000  12.560286  10.497688 17.512458
1376  2 0.0000   1.891595   2.206849  2.187568
1377  2 0.0000   0.290781  -0.654604  6.565350
1378  2 0.0000  -1.310032  -3.516056 10.943131
1379  2 0.0000  -2.910845  -6.377509 15.320913
1380  2 0.0000  -4.511659  -9.238962 19.698695
1381  2 0.0000   0.290300   7.436700  2.187568
1382  2 0.0000  -1.310513   4.575248  6.565350
1383  2 0.0000  -2.911326   1.713795 10.943131
1384  2 0.0000  -4.512140  -1.147658 15.320913
1385  2 0.0000  -6.112953  -4.009110 19.698695
1386  2 0.0000  -1.310994  12.666552  2.187568
1387  2 0.0000  -2.911807   9.805099  6.565350
1388  2 0.0000  -4.512621   6.943646 10.943131
1389  2 0.0000  -6.113434   4.082194 15.320913
1390  2 0.0000  -7.714247   1.220741 19.698695
1391  2 0.0000  -2.912288  17.896403  2.187568
1392  2 0.0000  -4.513102  15.034950  6.565350
1393  2 0.0000  -6.113915  12.173498 10.943131
1394  2 0.0000  -7.714728   9.312045 15.320913
1395  2 0.0000  -9.315542   6.450593 19.698695
1396  2 0.0000  -4.513583  23.126254  2.187568
1397  2 0.0000  -6.114396  20.264802  6.565350
1398  2 0.0000  -7.715209  17.403349 10.943131
1399  2 0.0000  -9.316023  14.541897 15.320913
1400  2 0.0000 -10.916836  11.680444 19.698695
1401  2 0.0000   7.361097   2.206849  2.187568
1402  2 0.0000   5.760283  -0.654604  6.565350
1403  2 0.0000   4.159470  -3.516056 10.943131
1404  2 0.0000   2.558657  -6.377509 15.320913
1405  2 0.0000   0.957843  -9.238962 19.698695
1406  2 0.0000   5.759802   7.436700  2.187568
1407  2 0.0000   4.158989   4.575248  6.565350
1408  2 0.0000   2.558176   1.713795 10.943131
1409  2 0.0000   0.957362  -1.147658 15.320913
1410  2 0.0000  -0.643451  -4.009110 19.698695
1411  2 0.0000   4.158508  12.666552  2.187568
1412  2 0.0000   2.557695   9.805099  6.565350
1413  2 0.0000   0.956881   6.943646 10.943131
1414  2 0.0000  -0.643932   4.082194 15.320913
1415  2 0.0000  -2.244745   1.220741 19.698695
1416  2 0.0000   2.557214  17.896403  2.187568
1417  2 0.0000   0.956400  15.034950  6.565350
1418  2 0.0000  -0.644413  12.173498 10.943131
1419  2 0.0000  -2.245226   9.312045 15.320913
1420  2 0.0000  -3.846040   6.450593 19.698695
1421  2 0.0000   0.955920  23.126254  2.187568
1422  2 0.0000  -0.644894  20.264802  6.565350
1423  2 0.0000  -2.245707  17.403349 10.943131
1424  2 0.0000  -3.846520  14.541897 15.320913
1425  2 0.0000  -5.447334  11.680444 19.698695
1426  2 0.0000  12.830599   2.206849  2.187568
1427  2 0.0000  11.229785  -0.654604  6.565350
1428  2 0.0000   9.628972  -3.516056 10.943131
1429  2 0.0000   8.028159  -6.377509 15.320913
1430  2 0.0000   6.427345  -9.238962 19.698695
1431  2 0.0000  11.229304   7.436700  2.187568
1432  2 0.0000   9.628491   4.575248  6.565350
1433  2 0.0000   8.027678   1.713795 10.943131
1434  2 0.0000   6.426864  -1.147658 15.320913
1435  2 0.0000   4.826051  -4.009110 19.698695
1436  2 0.0000   9.628010  12.666552  2.187568
1437  2 0.0000   8.027197   9.805099  6.565350
1438  2 0.0000   6.426384   6.943646 10.943131
1439  2 0.0000   4.825570   4.082194 15.320913
1440  2 0.0000   3.224757   1.220741 19.698695
1441  2 0.0000   8.026716  17.896403  2.187568
1442  2 0.0000   6.425903  15.034950  6.565350
1443  2 0.0000   4.825089  12.173498 10.943131
1444  2 0.0000   3.224276   9.312045 15.320913
1445  2 0.0000   1.623463   6.450593 19.698695
1446  2 0.0000   6.425422  23.126254  2.187568
1447  2 0.0000   4.824608  20.264802  6.565350
1448  2 0.0000   3.223795  17.403349 10.943131
1449  2 0.0000   1.622982  14.541897 15.320913
1450  2 0.0000   0.022168  11.680444 19.698695
1451  2 0.0000  18.300101   2.206849  2.187568
1452  2 0.0000  16.699287  -0.654604  6.565350
1453  2 0.0000  15.098474  -3.516056 10.943131
1454  2 0.0000  13.497661  -6.377509 15.320913
1455  2 0.0000  11.896847  -9.238962 19.698695
1456  2 0.0000  16.698807   7.436700  2.187568
1457  2 0.0000  15.097993   4.575248  6.565350
1458  2 0.0000  13.497180   1.713795 10.943131
1459  2 0.0000  11.896367  -1.147658 15.320913
1460  2 0.0000  10.295553  -4.009110 19.698695
1461  2 0.0000  15.097512  12.666552  2.187568
1462  2 0.0000  13.496699   9.805099  6.565350
1463  2 0.0000  11.895886   6.943646 10.943131
1464  2 0.0000  10.295072   4.082194 15.320913
1465  2 0.0000   8.694259   1.220741 19.698695
1466  2 0.0000  13.496218  17.896403  2.187568
1467  2 0.0000  11.895405  15.034950  6.565350
1468  2 0.0000  10.294591  12.173498 10.943131
1469  2 0.0000   8.693778   9.312045 15.320913
1470  2 0.0000   7.092965   6.450593 19.698695
1471  2 0.0000  11.894924  23.126254  2.187568
1472  2 0.0000  10.294110  20.264802  6.565350
1473  2 0.0000   8.693297  17.403349 10.943131
1474  2 0.0000   7.092484  14.541897 15.320913
1475  2 0.0000   5.491670  11.680444 19.698695
1476  2 0.0000  23.769603   2.206849  2.187568
1477  2 0.0000  22.168790  -0.654604  6.565350
1478  2 0.0000  20.567976  -3.516056 10.943131
1479  2 0.0000  18.967163  -6.377509 15.320913
1480  2 0.0000  17.366350  -9.238962 19.698695
1481  2 0.0000  22.168309   7.436700  2.187568
1482  2 0.0000  20.567495   4.575248  6.565350
1483  2 0.0000  18.966682   1.713795 10.943131
1484  2 0.0000  17.365869  -1.147658 15.320913
1485  2 0.0000  15.765055  -4.009110 19.698695
1486  2 0.0000  20.567014  12.666552  2.187568
1487  2 0.0000  18.966201   9.805099  6.565350
1488  2 0.0000  17.365388   6.943646 10.943131
1489  2 0.0000  15.764574   4.082194 15.320913
1490  2 0.0000  14.163761   1.220741 19.698695
1491  2 0.0000  18.965720  17.896403  2.187568
1492  2 0.0000  17.364907  15.034950  6.565350
1493  2 0.0000  15.764093  12.173498 10.943131
1494  2 0.0000  14.163280   9.312045 15.320913
1495  2 0.0000  12.562467   6.450593 19.698695
1496  2 0.0000  17.364426  23.126254  2.187568
1497  2 0.0000  15.763612  20.264802  6.565350
1498  2 0.0000  14.162799  17.403349 10.943131
1499  2 0.0000  12.561986  14.541897 15.320913
1500  2 0.0000  10.961172  11.680444 19.698695

