Generated by pymatgen.io.lammps.data.LammpsData

1500  atoms

   3  atom types

0.000000 25.680484  xlo xhi
0.000000 25.754194  ylo yhi
0.000000 26.815223  zlo zhi
-0.165173 -12.741894 -12.846870  xy xz yz

Masses

1   6.941000
2  88.905850
3  18.998403

Atoms

1     1 0.0000   0.018681  -1.284485  4.002417
2     1 0.0000  -2.529698  -3.853859  9.365462
3     1 0.0000  -5.078077  -6.423233 14.728506
4     1 0.0000  -7.626456  -8.992607 20.091551
5     1 0.0000 -10.174834 -11.561980 25.454595
6     1 0.0000  -0.014354   3.866354  4.002417
7     1 0.0000  -2.562732   1.296980  9.365462
8     1 0.0000  -5.111111  -1.272394 14.728506
9     1 0.0000  -7.659490  -3.841768 20.091551
10    1 0.0000 -10.207869  -6.411142 25.454595
11    1 0.0000  -0.047388   9.017193  4.002417
12    1 0.0000  -2.595767   6.447819  9.365462
13    1 0.0000  -5.144146   3.878445 14.728506
14    1 0.0000  -7.692525   1.309071 20.091551
15    1 0.0000 -10.240903  -1.260303 25.454595
16    1 0.0000  -0.080423  14.168031  4.002417
17    1 0.0000  -2.628801  11.598658  9.365462
18    1 0.0000  -5.177180   9.029284 14.728506
19    1 0.0000  -7.725559   6.459910 20.091551
20    1 0.0000 -10.273938   3.890536 25.454595
21    1 0.0000  -0.113457  19.318870  4.002417
22    1 0.0000  -2.661836  16.749496  9.365462
23    1 0.0000  -5.210215  14.180122 14.728506
24    1 0.0000  -7.758594  11.610748 20.091551
25    1 0.0000 -10.306972   9.041375 25.454595
26    1 0.0000   5.154778  -1.284485  4.002417
27    1 0.0000   2.606399  -3.853859  9.365462
28    1 0.0000   0.058020  -6.423233 14.728506
29    1 0.0000  -2.490359  -8.992607 20.091551
30    1 0.0000  -5.038738 -11.561980 25.454595
31    1 0.0000   5.121743   3.866354  4.002417
32    1 0.0000   2.573364   1.296980  9.365462
33    1 0.0000   0.024986  -1.272394 14.728506
34    1 0.0000  -2.523393  -3.841768 20.091551
35    1 0.0000  -5.071772  -6.411142 25.454595
36    1 0.0000   5.088709   9.017193  4.002417
37    1 0.0000   2.540330   6.447819  9.365462
38    1 0.0000  -0.008049   3.878445 14.728506
39    1 0.0000  -2.556428   1.309071 20.091551
40    1 0.0000  -5.104807  -1.260303 25.454595
41    1 0.0000   5.055674  14.168031  4.002417
42    1 0.0000   2.507295  11.598658  9.365462
43    1 0.0000  -0.041083   9.029284 14.728506
44    1 0.0000  -2.589462   6.459910 20.091551
45    1 0.0000  -5.137841   3.890536 25.454595
46    1 0.0000   5.022640  19.318870  4.002417
47    1 0.0000   2.474261  16.749496  9.365462
48    1 0.0000  -0.074118  14.180122 14.728506
49    1 0.0000  -2.622497  11.610748 20.091551
50    1 0.0000  -5.170876   9.041375 25.454595
51    1 0.0000  10.290875  -1.284485  4.002417
52    1 0.0000   7.742496  -3.853859  9.365462
53    1 0.0000   5.194117  -6.423233 14.728506
54    1 0.0000   2.645738  -8.992607 20.091551
55    1 0.0000   0.097359 -11.561980 25.454595
56    1 0.0000  10.257840   3.866354  4.002417
57    1 0.0000   7.709461   1.296980  9.365462
58    1 0.0000   5.161082  -1.272394 14.728506
59    1 0.0000   2.612704  -3.841768 20.091551
60    1 0.0000   0.064325  -6.411142 25.454595
61    1 0.0000  10.224806   9.017193  4.002417
62    1 0.0000   7.676427   6.447819  9.365462
63    1 0.0000   5.128048   3.878445 14.728506
64    1 0.0000   2.579669   1.309071 20.091551
65    1 0.0000   0.031290  -1.260303 25.454595
66    1 0.0000  10.191771  14.168031  4.002417
67    1 0.0000   7.643392  11.598658  9.365462
68    1 0.0000   5.095013   9.029284 14.728506
69    1 0.0000   2.546635   6.459910 20.091551
70    1 0.0000  -0.001744   3.890536 25.454595
71    1 0.0000  10.158737  19.318870  4.002417
72    1 0.0000   7.610358  16.749496  9.365462
73    1 0.0000   5.061979  14.180122 14.728506
74    1 0.0000   2.513600  11.610748 20.091551
75    1 0.0000  -0.034779   9.041375 25.454595
76    1 0.0000  15.426971  -1.284485  4.002417
77    1 0.0000  12.878593  -3.853859  9.365462
78    1 0.0000  10.330214  -6.423233 14.728506
79    1 0.0000   7.781835  -8.992607 20.091551
80    1 0.0000   5.233456 -11.561980 25.454595
81    1 0.0000  15.393937   3.866354  4.002417
82    1 0.0000  12.845558   1.296980  9.365462
83    1 0.0000  10.297179  -1.272394 14.728506
84    1 0.0000   7.748801  -3.841768 20.091551
85    1 0.0000   5.200422  -6.411142 25.454595
86    1 0.0000  15.360902   9.017193  4.002417
87    1 0.0000  12.812524   6.447819  9.365462
88    1 0.0000  10.264145   3.878445 14.728506
89    1 0.0000   7.715766   1.309071 20.091551
90    1 0.0000   5.167387  -1.260303 25.454595
91    1 0.0000  15.327868  14.168031  4.002417
92    1 0.0000  12.779489  11.598658  9.365462
93    1 0.0000  10.231110   9.029284 14.728506
94    1 0.0000   7.682732   6.459910 20.091551
95    1 0.0000   5.134353   3.890536 25.454595
96    1 0.0000  15.294833  19.318870  4.002417
97    1 0.0000  12.746455  16.749496  9.365462
98    1 0.0000  10.198076  14.180122 14.728506
99    1 0.0000   7.649697  11.610748 20.091551
100   1 0.0000   5.101318   9.041375 25.454595
101   1 0.0000  20.563068  -1.284485  4.002417
102   1 0.0000  18.014690  -3.853859  9.365462
103   1 0.0000  15.466311  -6.423233 14.728506
104   1 0.0000  12.917932  -8.992607 20.091551
105   1 0.0000  10.369553 -11.561980 25.454595
106   1 0.0000  20.530034   3.866354  4.002417
107   1 0.0000  17.981655   1.296980  9.365462
108   1 0.0000  15.433276  -1.272394 14.728506
109   1 0.0000  12.884897  -3.841768 20.091551
110   1 0.0000  10.336519  -6.411142 25.454595
111   1 0.0000  20.496999   9.017193  4.002417
112   1 0.0000  17.948621   6.447819  9.365462
113   1 0.0000  15.400242   3.878445 14.728506
114   1 0.0000  12.851863   1.309071 20.091551
115   1 0.0000  10.303484  -1.260303 25.454595
116   1 0.0000  20.463965  14.168031  4.002417
117   1 0.0000  17.915586  11.598658  9.365462
118   1 0.0000  15.367207   9.029284 14.728506
119   1 0.0000  12.818828   6.459910 20.091551
120   1 0.0000  10.270450   3.890536 25.454595
121   1 0.0000  20.430930  19.318870  4.002417
122   1 0.0000  17.882552  16.749496  9.365462
123   1 0.0000  15.334173  14.180122 14.728506
124   1 0.0000  12.785794  11.610748 20.091551
125   1 0.0000  10.237415   9.041375 25.454595
126   1 0.0000   2.536008   3.865950  1.360628
127   1 0.0000  -0.012371   1.296576  6.723672
128   1 0.0000  -2.560750  -1.272798 12.086717
129   1 0.0000  -5.109129  -3.842172 17.449761
130   1 0.0000  -7.657507  -6.411546 22.812806
131   1 0.0000   2.502973   9.016788  1.360628
132   1 0.0000  -0.045406   6.447414  6.723672
133   1 0.0000  -2.593784   3.878041 12.086717
134   1 0.0000  -5.142163   1.308667 17.449761
135   1 0.0000  -7.690542  -1.260707 22.812806
136   1 0.0000   2.469939  14.167627  1.360628
137   1 0.0000  -0.078440  11.598253  6.723672
138   1 0.0000  -2.626819   9.028879 12.086717
139   1 0.0000  -5.175198   6.459505 17.449761
140   1 0.0000  -7.723576   3.890131 22.812806
141   1 0.0000   2.436904  19.318466  1.360628
142   1 0.0000  -0.111475  16.749092  6.723672
143   1 0.0000  -2.659853  14.179718 12.086717
144   1 0.0000  -5.208232  11.610344 17.449761
145   1 0.0000  -7.756611   9.040970 22.812806
146   1 0.0000   2.403870  24.469305  1.360628
147   1 0.0000  -0.144509  21.899931  6.723672
148   1 0.0000  -2.692888  19.330557 12.086717
149   1 0.0000  -5.241267  16.761183 17.449761
150   1 0.0000  -7.789645  14.191809 22.812806
151   1 0.0000   7.672105   3.865950  1.360628
152   1 0.0000   5.123726   1.296576  6.723672
153   1 0.0000   2.575347  -1.272798 12.086717
154   1 0.0000   0.026968  -3.842172 17.449761
155   1 0.0000  -2.521411  -6.411546 22.812806
156   1 0.0000   7.639070   9.016788  1.360628
157   1 0.0000   5.090691   6.447414  6.723672
158   1 0.0000   2.542313   3.878041 12.086717
159   1 0.0000  -0.006066   1.308667 17.449761
160   1 0.0000  -2.554445  -1.260707 22.812806
161   1 0.0000   7.606036  14.167627  1.360628
162   1 0.0000   5.057657  11.598253  6.723672
163   1 0.0000   2.509278   9.028879 12.086717
164   1 0.0000  -0.039101   6.459505 17.449761
165   1 0.0000  -2.587480   3.890131 22.812806
166   1 0.0000   7.573001  19.318466  1.360628
167   1 0.0000   5.024622  16.749092  6.723672
168   1 0.0000   2.476244  14.179718 12.086717
169   1 0.0000  -0.072135  11.610344 17.449761
170   1 0.0000  -2.620514   9.040970 22.812806
171   1 0.0000   7.539967  24.469305  1.360628
172   1 0.0000   4.991588  21.899931  6.723672
173   1 0.0000   2.443209  19.330557 12.086717
174   1 0.0000  -0.105170  16.761183 17.449761
175   1 0.0000  -2.653549  14.191809 22.812806
176   1 0.0000  12.808202   3.865950  1.360628
177   1 0.0000  10.259823   1.296576  6.723672
178   1 0.0000   7.711444  -1.272798 12.086717
179   1 0.0000   5.163065  -3.842172 17.449761
180   1 0.0000   2.614686  -6.411546 22.812806
181   1 0.0000  12.775167   9.016788  1.360628
182   1 0.0000  10.226788   6.447414  6.723672
183   1 0.0000   7.678409   3.878041 12.086717
184   1 0.0000   5.130031   1.308667 17.449761
185   1 0.0000   2.581652  -1.260707 22.812806
186   1 0.0000  12.742133  14.167627  1.360628
187   1 0.0000  10.193754  11.598253  6.723672
188   1 0.0000   7.645375   9.028879 12.086717
189   1 0.0000   5.096996   6.459505 17.449761
190   1 0.0000   2.548617   3.890131 22.812806
191   1 0.0000  12.709098  19.318466  1.360628
192   1 0.0000  10.160719  16.749092  6.723672
193   1 0.0000   7.612340  14.179718 12.086717
194   1 0.0000   5.063962  11.610344 17.449761
195   1 0.0000   2.515583   9.040970 22.812806
196   1 0.0000  12.676064  24.469305  1.360628
197   1 0.0000  10.127685  21.899931  6.723672
198   1 0.0000   7.579306  19.330557 12.086717
199   1 0.0000   5.030927  16.761183 17.449761
200   1 0.0000   2.482548  14.191809 22.812806
201   1 0.0000  17.944298   3.865950  1.360628
202   1 0.0000  15.395920   1.296576  6.723672
203   1 0.0000  12.847541  -1.272798 12.086717
204   1 0.0000  10.299162  -3.842172 17.449761
205   1 0.0000   7.750783  -6.411546 22.812806
206   1 0.0000  17.911264   9.016788  1.360628
207   1 0.0000  15.362885   6.447414  6.723672
208   1 0.0000  12.814506   3.878041 12.086717
209   1 0.0000  10.266127   1.308667 17.449761
210   1 0.0000   7.717749  -1.260707 22.812806
211   1 0.0000  17.878229  14.167627  1.360628
212   1 0.0000  15.329851  11.598253  6.723672
213   1 0.0000  12.781472   9.028879 12.086717
214   1 0.0000  10.233093   6.459505 17.449761
215   1 0.0000   7.684714   3.890131 22.812806
216   1 0.0000  17.845195  19.318466  1.360628
217   1 0.0000  15.296816  16.749092  6.723672
218   1 0.0000  12.748437  14.179718 12.086717
219   1 0.0000  10.200058  11.610344 17.449761
220   1 0.0000   7.651680   9.040970 22.812806
221   1 0.0000  17.812160  24.469305  1.360628
222   1 0.0000  15.263782  21.899931  6.723672
223   1 0.0000  12.715403  19.330557 12.086717
224   1 0.0000  10.167024  16.761183 17.449761
225   1 0.0000   7.618645  14.191809 22.812806
226   1 0.0000  23.080395   3.865950  1.360628
227   1 0.0000  20.532016   1.296576  6.723672
228   1 0.0000  17.983638  -1.272798 12.086717
229   1 0.0000  15.435259  -3.842172 17.449761
230   1 0.0000  12.886880  -6.411546 22.812806
231   1 0.0000  23.047361   9.016788  1.360628
232   1 0.0000  20.498982   6.447414  6.723672
233   1 0.0000  17.950603   3.878041 12.086717
234   1 0.0000  15.402224   1.308667 17.449761
235   1 0.0000  12.853845  -1.260707 22.812806
236   1 0.0000  23.014326  14.167627  1.360628
237   1 0.0000  20.465947  11.598253  6.723672
238   1 0.0000  17.917569   9.028879 12.086717
239   1 0.0000  15.369190   6.459505 17.449761
240   1 0.0000  12.820811   3.890131 22.812806
241   1 0.0000  22.981292  19.318466  1.360628
242   1 0.0000  20.432913  16.749092  6.723672
243   1 0.0000  17.884534  14.179718 12.086717
244   1 0.0000  15.336155  11.610344 17.449761
245   1 0.0000  12.787776   9.040970 22.812806
246   1 0.0000  22.948257  24.469305  1.360628
247   1 0.0000  20.399878  21.899931  6.723672
248   1 0.0000  17.851500  19.330557 12.086717
249   1 0.0000  15.303121  16.761183 17.449761
250   1 0.0000  12.754742  14.191809 22.812806
251   2 0.0000  -0.008138   1.288209  1.337615
252   2 0.0000  -2.556517  -1.281164  6.700660
253   2 0.0000  -5.104896  -3.850538 12.063704
254   2 0.0000  -7.653275  -6.419912 17.426749
255   2 0.0000 -10.201654  -8.989286 22.789794
256   2 0.0000  -0.041173   6.439048  1.337615
257   2 0.0000  -2.589552   3.869674  6.700660
258   2 0.0000  -5.137930   1.300300 12.063704
259   2 0.0000  -7.686309  -1.269074 17.426749
260   2 0.0000 -10.234688  -3.838447 22.789794
261   2 0.0000  -0.074207  11.589887  1.337615
262   2 0.0000  -2.622586   9.020513  6.700660
263   2 0.0000  -5.170965   6.451139 12.063704
264   2 0.0000  -7.719344   3.881765 17.426749
265   2 0.0000 -10.267723   1.312391 22.789794
266   2 0.0000  -0.107242  16.740726  1.337615
267   2 0.0000  -2.655621  14.171352  6.700660
268   2 0.0000  -5.203999  11.601978 12.063704
269   2 0.0000  -7.752378   9.032604 17.426749
270   2 0.0000 -10.300757   6.463230 22.789794
271   2 0.0000  -0.140276  21.891564  1.337615
272   2 0.0000  -2.688655  19.322191  6.700660
273   2 0.0000  -5.237034  16.752817 12.063704
274   2 0.0000  -7.785413  14.183443 17.426749
275   2 0.0000 -10.333792  11.614069 22.789794
276   2 0.0000   5.127959   1.288209  1.337615
277   2 0.0000   2.579580  -1.281164  6.700660
278   2 0.0000   0.031201  -3.850538 12.063704
279   2 0.0000  -2.517178  -6.419912 17.426749
280   2 0.0000  -5.065557  -8.989286 22.789794
281   2 0.0000   5.094924   6.439048  1.337615
282   2 0.0000   2.546545   3.869674  6.700660
283   2 0.0000  -0.001834   1.300300 12.063704
284   2 0.0000  -2.550212  -1.269074 17.426749
285   2 0.0000  -5.098591  -3.838447 22.789794
286   2 0.0000   5.061890  11.589887  1.337615
287   2 0.0000   2.513511   9.020513  6.700660
288   2 0.0000  -0.034868   6.451139 12.063704
289   2 0.0000  -2.583247   3.881765 17.426749
290   2 0.0000  -5.131626   1.312391 22.789794
291   2 0.0000   5.028855  16.740726  1.337615
292   2 0.0000   2.480476  14.171352  6.700660
293   2 0.0000  -0.067903  11.601978 12.063704
294   2 0.0000  -2.616281   9.032604 17.426749
295   2 0.0000  -5.164660   6.463230 22.789794
296   2 0.0000   4.995821  21.891564  1.337615
297   2 0.0000   2.447442  19.322191  6.700660
298   2 0.0000  -0.100937  16.752817 12.063704
299   2 0.0000  -2.649316  14.183443 17.426749
300   2 0.0000  -5.197695  11.614069 22.789794
301   2 0.0000  10.264055   1.288209  1.337615
302   2 0.0000   7.715677  -1.281164  6.700660
303   2 0.0000   5.167298  -3.850538 12.063704
304   2 0.0000   2.618919  -6.419912 17.426749
305   2 0.0000   0.070540  -8.989286 22.789794
306   2 0.0000  10.231021   6.439048  1.337615
307   2 0.0000   7.682642   3.869674  6.700660
308   2 0.0000   5.134263   1.300300 12.063704
309   2 0.0000   2.585884  -1.269074 17.426749
310   2 0.0000   0.037506  -3.838447 22.789794
311   2 0.0000  10.197986  11.589887  1.337615
312   2 0.0000   7.649608   9.020513  6.700660
313   2 0.0000   5.101229   6.451139 12.063704
314   2 0.0000   2.552850   3.881765 17.426749
315   2 0.0000   0.004471   1.312391 22.789794
316   2 0.0000  10.164952  16.740726  1.337615
317   2 0.0000   7.616573  14.171352  6.700660
318   2 0.0000   5.068194  11.601978 12.063704
319   2 0.0000   2.519815   9.032604 17.426749
320   2 0.0000  -0.028563   6.463230 22.789794
321   2 0.0000  10.131917  21.891564  1.337615
322   2 0.0000   7.583539  19.322191  6.700660
323   2 0.0000   5.035160  16.752817 12.063704
324   2 0.0000   2.486781  14.183443 17.426749
325   2 0.0000  -0.061598  11.614069 22.789794
326   2 0.0000  15.400152   1.288209  1.337615
327   2 0.0000  12.851773  -1.281164  6.700660
328   2 0.0000  10.303395  -3.850538 12.063704
329   2 0.0000   7.755016  -6.419912 17.426749
330   2 0.0000   5.206637  -8.989286 22.789794
331   2 0.0000  15.367118   6.439048  1.337615
332   2 0.0000  12.818739   3.869674  6.700660
333   2 0.0000  10.270360   1.300300 12.063704
334   2 0.0000   7.721981  -1.269074 17.426749
335   2 0.0000   5.173603  -3.838447 22.789794
336   2 0.0000  15.334083  11.589887  1.337615
337   2 0.0000  12.785704   9.020513  6.700660
338   2 0.0000  10.237326   6.451139 12.063704
339   2 0.0000   7.688947   3.881765 17.426749
340   2 0.0000   5.140568   1.312391 22.789794
341   2 0.0000  15.301049  16.740726  1.337615
342   2 0.0000  12.752670  14.171352  6.700660
343   2 0.0000  10.204291  11.601978 12.063704
344   2 0.0000   7.655912   9.032604 17.426749
345   2 0.0000   5.107534   6.463230 22.789794
346   2 0.0000  15.268014  21.891564  1.337615
347   2 0.0000  12.719635  19.322191  6.700660
348   2 0.0000  10.171257  16.752817 12.063704
349   2 0.0000   7.622878  14.183443 17.426749
350   2 0.0000   5.074499  11.614069 22.789794
351   2 0.0000  20.536249   1.288209  1.337615
352   2 0.0000  17.987870  -1.281164  6.700660
353   2 0.0000  15.439492  -3.850538 12.063704
354   2 0.0000  12.891113  -6.419912 17.426749
355   2 0.0000  10.342734  -8.989286 22.789794
356   2 0.0000  20.503215   6.439048  1.337615
357   2 0.0000  17.954836   3.869674  6.700660
358   2 0.0000  15.406457   1.300300 12.063704
359   2 0.0000  12.858078  -1.269074 17.426749
360   2 0.0000  10.309699  -3.838447 22.789794
361   2 0.0000  20.470180  11.589887  1.337615
362   2 0.0000  17.921801   9.020513  6.700660
363   2 0.0000  15.373423   6.451139 12.063704
364   2 0.0000  12.825044   3.881765 17.426749
365   2 0.0000  10.276665   1.312391 22.789794
366   2 0.0000  20.437146  16.740726  1.337615
367   2 0.0000  17.888767  14.171352  6.700660
368   2 0.0000  15.340388  11.601978 12.063704
369   2 0.0000  12.792009   9.032604 17.426749
370   2 0.0000  10.243630   6.463230 22.789794
371   2 0.0000  20.404111  21.891564  1.337615
372   2 0.0000  17.855732  19.322191  6.700660
373   2 0.0000  15.307354  16.752817 12.063704
374   2 0.0000  12.758975  14.183443 17.426749
375   2 0.0000  10.210596  11.614069 22.789794
376   2 0.0000   2.562822   1.293261  4.025429
377   2 0.0000   0.014443  -1.276113  9.388474
378   2 0.0000  -2.533936  -3.845487 14.751519
379   2 0.0000  -5.082315  -6.414861 20.114563
380   2 0.0000  -7.630693  -8.984235 25.477608
381   2 0.0000   2.529787   6.444099  4.025429
382   2 0.0000  -0.018591   3.874725  9.388474
383   2 0.0000  -2.566970   1.305351 14.751519
384   2 0.0000  -5.115349  -1.264022 20.114563
385   2 0.0000  -7.663728  -3.833396 25.477608
386   2 0.0000   2.496753  11.594938  4.025429
387   2 0.0000  -0.051626   9.025564  9.388474
388   2 0.0000  -2.600005   6.456190 14.751519
389   2 0.0000  -5.148384   3.886816 20.114563
390   2 0.0000  -7.696762   1.317442 25.477608
391   2 0.0000   2.463718  16.745777  4.025429
392   2 0.0000  -0.084660  14.176403  9.388474
393   2 0.0000  -2.633039  11.607029 14.751519
394   2 0.0000  -5.181418   9.037655 20.114563
395   2 0.0000  -7.729797   6.468281 25.477608
396   2 0.0000   2.430684  21.896616  4.025429
397   2 0.0000  -0.117695  19.327242  9.388474
398   2 0.0000  -2.666074  16.757868 14.751519
399   2 0.0000  -5.214453  14.188494 20.114563
400   2 0.0000  -7.762831  11.619120 25.477608
401   2 0.0000   7.698919   1.293261  4.025429
402   2 0.0000   5.150540  -1.276113  9.388474
403   2 0.0000   2.602161  -3.845487 14.751519
404   2 0.0000   0.053782  -6.414861 20.114563
405   2 0.0000  -2.494597  -8.984235 25.477608
406   2 0.0000   7.665884   6.444099  4.025429
407   2 0.0000   5.117505   3.874725  9.388474
408   2 0.0000   2.569127   1.305351 14.751519
409   2 0.0000   0.020748  -1.264022 20.114563
410   2 0.0000  -2.527631  -3.833396 25.477608
411   2 0.0000   7.632850  11.594938  4.025429
412   2 0.0000   5.084471   9.025564  9.388474
413   2 0.0000   2.536092   6.456190 14.751519
414   2 0.0000  -0.012287   3.886816 20.114563
415   2 0.0000  -2.560666   1.317442 25.477608
416   2 0.0000   7.599815  16.745777  4.025429
417   2 0.0000   5.051436  14.176403  9.388474
418   2 0.0000   2.503058  11.607029 14.751519
419   2 0.0000  -0.045321   9.037655 20.114563
420   2 0.0000  -2.593700   6.468281 25.477608
421   2 0.0000   7.566781  21.896616  4.025429
422   2 0.0000   5.018402  19.327242  9.388474
423   2 0.0000   2.470023  16.757868 14.751519
424   2 0.0000  -0.078356  14.188494 20.114563
425   2 0.0000  -2.626735  11.619120 25.477608
426   2 0.0000  12.835016   1.293261  4.025429
427   2 0.0000  10.286637  -1.276113  9.388474
428   2 0.0000   7.738258  -3.845487 14.751519
429   2 0.0000   5.189879  -6.414861 20.114563
430   2 0.0000   2.641500  -8.984235 25.477608
431   2 0.0000  12.801981   6.444099  4.025429
432   2 0.0000  10.253602   3.874725  9.388474
433   2 0.0000   7.705223   1.305351 14.751519
434   2 0.0000   5.156845  -1.264022 20.114563
435   2 0.0000   2.608466  -3.833396 25.477608
436   2 0.0000  12.768947  11.594938  4.025429
437   2 0.0000  10.220568   9.025564  9.388474
438   2 0.0000   7.672189   6.456190 14.751519
439   2 0.0000   5.123810   3.886816 20.114563
440   2 0.0000   2.575431   1.317442 25.477608
441   2 0.0000  12.735912  16.745777  4.025429
442   2 0.0000  10.187533  14.176403  9.388474
443   2 0.0000   7.639154  11.607029 14.751519
444   2 0.0000   5.090776   9.037655 20.114563
445   2 0.0000   2.542397   6.468281 25.477608
446   2 0.0000  12.702878  21.896616  4.025429
447   2 0.0000  10.154499  19.327242  9.388474
448   2 0.0000   7.606120  16.757868 14.751519
449   2 0.0000   5.057741  14.188494 20.114563
450   2 0.0000   2.509362  11.619120 25.477608
451   2 0.0000  17.971112   1.293261  4.025429
452   2 0.0000  15.422734  -1.276113  9.388474
453   2 0.0000  12.874355  -3.845487 14.751519
454   2 0.0000  10.325976  -6.414861 20.114563
455   2 0.0000   7.777597  -8.984235 25.477608
456   2 0.0000  17.938078   6.444099  4.025429
457   2 0.0000  15.389699   3.874725  9.388474
458   2 0.0000  12.841320   1.305351 14.751519
459   2 0.0000  10.292941  -1.264022 20.114563
460   2 0.0000   7.744563  -3.833396 25.477608
461   2 0.0000  17.905043  11.594938  4.025429
462   2 0.0000  15.356665   9.025564  9.388474
463   2 0.0000  12.808286   6.456190 14.751519
464   2 0.0000  10.259907   3.886816 20.114563
465   2 0.0000   7.711528   1.317442 25.477608
466   2 0.0000  17.872009  16.745777  4.025429
467   2 0.0000  15.323630  14.176403  9.388474
468   2 0.0000  12.775251  11.607029 14.751519
469   2 0.0000  10.226872   9.037655 20.114563
470   2 0.0000   7.678494   6.468281 25.477608
471   2 0.0000  17.838974  21.896616  4.025429
472   2 0.0000  15.290596  19.327242  9.388474
473   2 0.0000  12.742217  16.757868 14.751519
474   2 0.0000  10.193838  14.188494 20.114563
475   2 0.0000   7.645459  11.619120 25.477608
476   2 0.0000  23.107209   1.293261  4.025429
477   2 0.0000  20.558830  -1.276113  9.388474
478   2 0.0000  18.010452  -3.845487 14.751519
479   2 0.0000  15.462073  -6.414861 20.114563
480   2 0.0000  12.913694  -8.984235 25.477608
481   2 0.0000  23.074175   6.444099  4.025429
482   2 0.0000  20.525796   3.874725  9.388474
483   2 0.0000  17.977417   1.305351 14.751519
484   2 0.0000  15.429038  -1.264022 20.114563
485   2 0.0000  12.880660  -3.833396 25.477608
486   2 0.0000  23.041140  11.594938  4.025429
487   2 0.0000  20.492761   9.025564  9.388474
488   2 0.0000  17.944383   6.456190 14.751519
489   2 0.0000  15.396004   3.886816 20.114563
490   2 0.0000  12.847625   1.317442 25.477608
491   2 0.0000  23.008106  16.745777  4.025429
492   2 0.0000  20.459727  14.176403  9.388474
493   2 0.0000  17.911348  11.607029 14.751519
494   2 0.0000  15.362969   9.037655 20.114563
495   2 0.0000  12.814591   6.468281 25.477608
496   2 0.0000  22.975071  21.896616  4.025429
497   2 0.0000  20.426692  19.327242  9.388474
498   2 0.0000  17.878314  16.757868 14.751519
499   2 0.0000  15.329935  14.188494 20.114563
500   2 0.0000  12.781556  11.619120 25.477608
501   3 0.0000   0.834603   2.426210  3.147868
502   3 0.0000  -1.713776  -0.143164  8.510912
503   3 0.0000  -4.262155  -2.712538 13.873957
504   3 0.0000  -6.810534  -5.281912 19.237001
505   3 0.0000  -9.358912  -7.851286 24.600046
506   3 0.0000   0.801568   7.577049  3.147868
507   3 0.0000  -1.746811   5.007675  8.510912
508   3 0.0000  -4.295189   2.438301 13.873957
509   3 0.0000  -6.843568  -0.131073 19.237001
510   3 0.0000  -9.391947  -2.700447 24.600046
511   3 0.0000   0.768534  12.727888  3.147868
512   3 0.0000  -1.779845  10.158514  8.510912
513   3 0.0000  -4.328224   7.589140 13.873957
514   3 0.0000  -6.876603   5.019766 19.237001
515   3 0.0000  -9.424981   2.450392 24.600046
516   3 0.0000   0.735499  17.878726  3.147868
517   3 0.0000  -1.812880  15.309352  8.510912
518   3 0.0000  -4.361258  12.739978 13.873957
519   3 0.0000  -6.909637  10.170604 19.237001
520   3 0.0000  -9.458016   7.601231 24.600046
521   3 0.0000   0.702465  23.029565  3.147868
522   3 0.0000  -1.845914  20.460191  8.510912
523   3 0.0000  -4.394293  17.890817 13.873957
524   3 0.0000  -6.942672  15.321443 19.237001
525   3 0.0000  -9.491050  12.752069 24.600046
526   3 0.0000   5.970700   2.426210  3.147868
527   3 0.0000   3.422321  -0.143164  8.510912
528   3 0.0000   0.873942  -2.712538 13.873957
529   3 0.0000  -1.674437  -5.281912 19.237001
530   3 0.0000  -4.222816  -7.851286 24.600046
531   3 0.0000   5.937665   7.577049  3.147868
532   3 0.0000   3.389286   5.007675  8.510912
533   3 0.0000   0.840908   2.438301 13.873957
534   3 0.0000  -1.707471  -0.131073 19.237001
535   3 0.0000  -4.255850  -2.700447 24.600046
536   3 0.0000   5.904631  12.727888  3.147868
537   3 0.0000   3.356252  10.158514  8.510912
538   3 0.0000   0.807873   7.589140 13.873957
539   3 0.0000  -1.740506   5.019766 19.237001
540   3 0.0000  -4.288885   2.450392 24.600046
541   3 0.0000   5.871596  17.878726  3.147868
542   3 0.0000   3.323217  15.309352  8.510912
543   3 0.0000   0.774839  12.739978 13.873957
544   3 0.0000  -1.773540  10.170604 19.237001
545   3 0.0000  -4.321919   7.601231 24.600046
546   3 0.0000   5.838562  23.029565  3.147868
547   3 0.0000   3.290183  20.460191  8.510912
548   3 0.0000   0.741804  17.890817 13.873957
549   3 0.0000  -1.806575  15.321443 19.237001
550   3 0.0000  -4.354954  12.752069 24.600046
551   3 0.0000  11.106797   2.426210  3.147868
552   3 0.0000   8.558418  -0.143164  8.510912
553   3 0.0000   6.010039  -2.712538 13.873957
554   3 0.0000   3.461660  -5.281912 19.237001
555   3 0.0000   0.913281  -7.851286 24.600046
556   3 0.0000  11.073762   7.577049  3.147868
557   3 0.0000   8.525383   5.007675  8.510912
558   3 0.0000   5.977004   2.438301 13.873957
559   3 0.0000   3.428626  -0.131073 19.237001
560   3 0.0000   0.880247  -2.700447 24.600046
561   3 0.0000  11.040728  12.727888  3.147868
562   3 0.0000   8.492349  10.158514  8.510912
563   3 0.0000   5.943970   7.589140 13.873957
564   3 0.0000   3.395591   5.019766 19.237001
565   3 0.0000   0.847212   2.450392 24.600046
566   3 0.0000  11.007693  17.878726  3.147868
567   3 0.0000   8.459314  15.309352  8.510912
568   3 0.0000   5.910935  12.739978 13.873957
569   3 0.0000   3.362557  10.170604 19.237001
570   3 0.0000   0.814178   7.601231 24.600046
571   3 0.0000  10.974659  23.029565  3.147868
572   3 0.0000   8.426280  20.460191  8.510912
573   3 0.0000   5.877901  17.890817 13.873957
574   3 0.0000   3.329522  15.321443 19.237001
575   3 0.0000   0.781143  12.752069 24.600046
576   3 0.0000  16.242893   2.426210  3.147868
577   3 0.0000  13.694515  -0.143164  8.510912
578   3 0.0000  11.146136  -2.712538 13.873957
579   3 0.0000   8.597757  -5.281912 19.237001
580   3 0.0000   6.049378  -7.851286 24.600046
581   3 0.0000  16.209859   7.577049  3.147868
582   3 0.0000  13.661480   5.007675  8.510912
583   3 0.0000  11.113101   2.438301 13.873957
584   3 0.0000   8.564722  -0.131073 19.237001
585   3 0.0000   6.016344  -2.700447 24.600046
586   3 0.0000  16.176824  12.727888  3.147868
587   3 0.0000  13.628446  10.158514  8.510912
588   3 0.0000  11.080067   7.589140 13.873957
589   3 0.0000   8.531688   5.019766 19.237001
590   3 0.0000   5.983309   2.450392 24.600046
591   3 0.0000  16.143790  17.878726  3.147868
592   3 0.0000  13.595411  15.309352  8.510912
593   3 0.0000  11.047032  12.739978 13.873957
594   3 0.0000   8.498653  10.170604 19.237001
595   3 0.0000   5.950275   7.601231 24.600046
596   3 0.0000  16.110755  23.029565  3.147868
597   3 0.0000  13.562377  20.460191  8.510912
598   3 0.0000  11.013998  17.890817 13.873957
599   3 0.0000   8.465619  15.321443 19.237001
600   3 0.0000   5.917240  12.752069 24.600046
601   3 0.0000  21.378990   2.426210  3.147868
602   3 0.0000  18.830611  -0.143164  8.510912
603   3 0.0000  16.282233  -2.712538 13.873957
604   3 0.0000  13.733854  -5.281912 19.237001
605   3 0.0000  11.185475  -7.851286 24.600046
606   3 0.0000  21.345956   7.577049  3.147868
607   3 0.0000  18.797577   5.007675  8.510912
608   3 0.0000  16.249198   2.438301 13.873957
609   3 0.0000  13.700819  -0.131073 19.237001
610   3 0.0000  11.152440  -2.700447 24.600046
611   3 0.0000  21.312921  12.727888  3.147868
612   3 0.0000  18.764542  10.158514  8.510912
613   3 0.0000  16.216164   7.589140 13.873957
614   3 0.0000  13.667785   5.019766 19.237001
615   3 0.0000  11.119406   2.450392 24.600046
616   3 0.0000  21.279887  17.878726  3.147868
617   3 0.0000  18.731508  15.309352  8.510912
618   3 0.0000  16.183129  12.739978 13.873957
619   3 0.0000  13.634750  10.170604 19.237001
620   3 0.0000  11.086371   7.601231 24.600046
621   3 0.0000  21.246852  23.029565  3.147868
622   3 0.0000  18.698473  20.460191  8.510912
623   3 0.0000  16.150095  17.890817 13.873957
624   3 0.0000  13.601716  15.321443 19.237001
625   3 0.0000  11.053337  12.752069 24.600046
626   3 0.0000   1.112016   3.029606  0.472782
627   3 0.0000  -1.436363   0.460232  5.835827
628   3 0.0000  -3.984742  -2.109142 11.198871
629   3 0.0000  -6.533121  -4.678516 16.561916
630   3 0.0000  -9.081500  -7.247890 21.924961
631   3 0.0000   1.078981   8.180445  0.472782
632   3 0.0000  -1.469398   5.611071  5.835827
633   3 0.0000  -4.017777   3.041697 11.198871
634   3 0.0000  -6.566155   0.472323 16.561916
635   3 0.0000  -9.114534  -2.097051 21.924961
636   3 0.0000   1.045947  13.331284  0.472782
637   3 0.0000  -1.502432  10.761910  5.835827
638   3 0.0000  -4.050811   8.192536 11.198871
639   3 0.0000  -6.599190   5.623162 16.561916
640   3 0.0000  -9.147569   3.053788 21.924961
641   3 0.0000   1.012912  18.482122  0.472782
642   3 0.0000  -1.535467  15.912748  5.835827
643   3 0.0000  -4.083846  13.343374 11.198871
644   3 0.0000  -6.632224  10.774001 16.561916
645   3 0.0000  -9.180603   8.204627 21.924961
646   3 0.0000   0.979878  23.632961  0.472782
647   3 0.0000  -1.568501  21.063587  5.835827
648   3 0.0000  -4.116880  18.494213 11.198871
649   3 0.0000  -6.665259  15.924839 16.561916
650   3 0.0000  -9.213638  13.355465 21.924961
651   3 0.0000   6.248112   3.029606  0.472782
652   3 0.0000   3.699734   0.460232  5.835827
653   3 0.0000   1.151355  -2.109142 11.198871
654   3 0.0000  -1.397024  -4.678516 16.561916
655   3 0.0000  -3.945403  -7.247890 21.924961
656   3 0.0000   6.215078   8.180445  0.472782
657   3 0.0000   3.666699   5.611071  5.835827
658   3 0.0000   1.118320   3.041697 11.198871
659   3 0.0000  -1.430059   0.472323 16.561916
660   3 0.0000  -3.978437  -2.097051 21.924961
661   3 0.0000   6.182043  13.331284  0.472782
662   3 0.0000   3.633665  10.761910  5.835827
663   3 0.0000   1.085286   8.192536 11.198871
664   3 0.0000  -1.463093   5.623162 16.561916
665   3 0.0000  -4.011472   3.053788 21.924961
666   3 0.0000   6.149009  18.482122  0.472782
667   3 0.0000   3.600630  15.912748  5.835827
668   3 0.0000   1.052251  13.343374 11.198871
669   3 0.0000  -1.496128  10.774001 16.561916
670   3 0.0000  -4.044506   8.204627 21.924961
671   3 0.0000   6.115974  23.632961  0.472782
672   3 0.0000   3.567596  21.063587  5.835827
673   3 0.0000   1.019217  18.494213 11.198871
674   3 0.0000  -1.529162  15.924839 16.561916
675   3 0.0000  -4.077541  13.355465 21.924961
676   3 0.0000  11.384209   3.029606  0.472782
677   3 0.0000   8.835831   0.460232  5.835827
678   3 0.0000   6.287452  -2.109142 11.198871
679   3 0.0000   3.739073  -4.678516 16.561916
680   3 0.0000   1.190694  -7.247890 21.924961
681   3 0.0000  11.351175   8.180445  0.472782
682   3 0.0000   8.802796   5.611071  5.835827
683   3 0.0000   6.254417   3.041697 11.198871
684   3 0.0000   3.706038   0.472323 16.561916
685   3 0.0000   1.157660  -2.097051 21.924961
686   3 0.0000  11.318140  13.331284  0.472782
687   3 0.0000   8.769762  10.761910  5.835827
688   3 0.0000   6.221383   8.192536 11.198871
689   3 0.0000   3.673004   5.623162 16.561916
690   3 0.0000   1.124625   3.053788 21.924961
691   3 0.0000  11.285106  18.482122  0.472782
692   3 0.0000   8.736727  15.912748  5.835827
693   3 0.0000   6.188348  13.343374 11.198871
694   3 0.0000   3.639969  10.774001 16.561916
695   3 0.0000   1.091591   8.204627 21.924961
696   3 0.0000  11.252071  23.632961  0.472782
697   3 0.0000   8.703693  21.063587  5.835827
698   3 0.0000   6.155314  18.494213 11.198871
699   3 0.0000   3.606935  15.924839 16.561916
700   3 0.0000   1.058556  13.355465 21.924961
701   3 0.0000  16.520306   3.029606  0.472782
702   3 0.0000  13.971927   0.460232  5.835827
703   3 0.0000  11.423549  -2.109142 11.198871
704   3 0.0000   8.875170  -4.678516 16.561916
705   3 0.0000   6.326791  -7.247890 21.924961
706   3 0.0000  16.487272   8.180445  0.472782
707   3 0.0000  13.938893   5.611071  5.835827
708   3 0.0000  11.390514   3.041697 11.198871
709   3 0.0000   8.842135   0.472323 16.561916
710   3 0.0000   6.293756  -2.097051 21.924961
711   3 0.0000  16.454237  13.331284  0.472782
712   3 0.0000  13.905858  10.761910  5.835827
713   3 0.0000  11.357480   8.192536 11.198871
714   3 0.0000   8.809101   5.623162 16.561916
715   3 0.0000   6.260722   3.053788 21.924961
716   3 0.0000  16.421203  18.482122  0.472782
717   3 0.0000  13.872824  15.912748  5.835827
718   3 0.0000  11.324445  13.343374 11.198871
719   3 0.0000   8.776066  10.774001 16.561916
720   3 0.0000   6.227687   8.204627 21.924961
721   3 0.0000  16.388168  23.632961  0.472782
722   3 0.0000  13.839789  21.063587  5.835827
723   3 0.0000  11.291411  18.494213 11.198871
724   3 0.0000   8.743032  15.924839 16.561916
725   3 0.0000   6.194653  13.355465 21.924961
726   3 0.0000  21.656403   3.029606  0.472782
727   3 0.0000  19.108024   0.460232  5.835827
728   3 0.0000  16.559645  -2.109142 11.198871
729   3 0.0000  14.011267  -4.678516 16.561916
730   3 0.0000  11.462888  -7.247890 21.924961
731   3 0.0000  21.623369   8.180445  0.472782
732   3 0.0000  19.074990   5.611071  5.835827
733   3 0.0000  16.526611   3.041697 11.198871
734   3 0.0000  13.978232   0.472323 16.561916
735   3 0.0000  11.429853  -2.097051 21.924961
736   3 0.0000  21.590334  13.331284  0.472782
737   3 0.0000  19.041955  10.761910  5.835827
738   3 0.0000  16.493576   8.192536 11.198871
739   3 0.0000  13.945198   5.623162 16.561916
740   3 0.0000  11.396819   3.053788 21.924961
741   3 0.0000  21.557300  18.482122  0.472782
742   3 0.0000  19.008921  15.912748  5.835827
743   3 0.0000  16.460542  13.343374 11.198871
744   3 0.0000  13.912163  10.774001 16.561916
745   3 0.0000  11.363784   8.204627 21.924961
746   3 0.0000  21.524265  23.632961  0.472782
747   3 0.0000  18.975886  21.063587  5.835827
748   3 0.0000  16.427507  18.494213 11.198871
749   3 0.0000  13.879129  15.924839 16.561916
750   3 0.0000  11.330750  13.355465 21.924961
751   3 0.0000   3.400238   2.425612  2.211538
752   3 0.0000   0.851859  -0.143762  7.574582
753   3 0.0000  -1.696520  -2.713136 12.937627
754   3 0.0000  -4.244899  -5.282510 18.300671
755   3 0.0000  -6.793278  -7.851884 23.663716
756   3 0.0000   3.367203   7.576451  2.211538
757   3 0.0000   0.818824   5.007077  7.574582
758   3 0.0000  -1.729555   2.437703 12.937627
759   3 0.0000  -4.277933  -0.131671 18.300671
760   3 0.0000  -6.826312  -2.701045 23.663716
761   3 0.0000   3.334169  12.727290  2.211538
762   3 0.0000   0.785790  10.157916  7.574582
763   3 0.0000  -1.762589   7.588542 12.937627
764   3 0.0000  -4.310968   5.019168 18.300671
765   3 0.0000  -6.859347   2.449794 23.663716
766   3 0.0000   3.301134  17.878128  2.211538
767   3 0.0000   0.752755  15.308754  7.574582
768   3 0.0000  -1.795624  12.739380 12.937627
769   3 0.0000  -4.344002  10.170006 18.300671
770   3 0.0000  -6.892381   7.600633 23.663716
771   3 0.0000   3.268100  23.028967  2.211538
772   3 0.0000   0.719721  20.459593  7.574582
773   3 0.0000  -1.828658  17.890219 12.937627
774   3 0.0000  -4.377037  15.320845 18.300671
775   3 0.0000  -6.925416  12.751471 23.663716
776   3 0.0000   8.536334   2.425612  2.211538
777   3 0.0000   5.987956  -0.143762  7.574582
778   3 0.0000   3.439577  -2.713136 12.937627
779   3 0.0000   0.891198  -5.282510 18.300671
780   3 0.0000  -1.657181  -7.851884 23.663716
781   3 0.0000   8.503300   7.576451  2.211538
782   3 0.0000   5.954921   5.007077  7.574582
783   3 0.0000   3.406542   2.437703 12.937627
784   3 0.0000   0.858163  -0.131671 18.300671
785   3 0.0000  -1.690215  -2.701045 23.663716
786   3 0.0000   8.470265  12.727290  2.211538
787   3 0.0000   5.921887  10.157916  7.574582
788   3 0.0000   3.373508   7.588542 12.937627
789   3 0.0000   0.825129   5.019168 18.300671
790   3 0.0000  -1.723250   2.449794 23.663716
791   3 0.0000   8.437231  17.878128  2.211538
792   3 0.0000   5.888852  15.308754  7.574582
793   3 0.0000   3.340473  12.739380 12.937627
794   3 0.0000   0.792094  10.170006 18.300671
795   3 0.0000  -1.756284   7.600633 23.663716
796   3 0.0000   8.404196  23.028967  2.211538
797   3 0.0000   5.855818  20.459593  7.574582
798   3 0.0000   3.307439  17.890219 12.937627
799   3 0.0000   0.759060  15.320845 18.300671
800   3 0.0000  -1.789319  12.751471 23.663716
801   3 0.0000  13.672431   2.425612  2.211538
802   3 0.0000  11.124052  -0.143762  7.574582
803   3 0.0000   8.575674  -2.713136 12.937627
804   3 0.0000   6.027295  -5.282510 18.300671
805   3 0.0000   3.478916  -7.851884 23.663716
806   3 0.0000  13.639397   7.576451  2.211538
807   3 0.0000  11.091018   5.007077  7.574582
808   3 0.0000   8.542639   2.437703 12.937627
809   3 0.0000   5.994260  -0.131671 18.300671
810   3 0.0000   3.445882  -2.701045 23.663716
811   3 0.0000  13.606362  12.727290  2.211538
812   3 0.0000  11.057983  10.157916  7.574582
813   3 0.0000   8.509605   7.588542 12.937627
814   3 0.0000   5.961226   5.019168 18.300671
815   3 0.0000   3.412847   2.449794 23.663716
816   3 0.0000  13.573328  17.878128  2.211538
817   3 0.0000  11.024949  15.308754  7.574582
818   3 0.0000   8.476570  12.739380 12.937627
819   3 0.0000   5.928191  10.170006 18.300671
820   3 0.0000   3.379813   7.600633 23.663716
821   3 0.0000  13.540293  23.028967  2.211538
822   3 0.0000  10.991914  20.459593  7.574582
823   3 0.0000   8.443536  17.890219 12.937627
824   3 0.0000   5.895157  15.320845 18.300671
825   3 0.0000   3.346778  12.751471 23.663716
826   3 0.0000  18.808528   2.425612  2.211538
827   3 0.0000  16.260149  -0.143762  7.574582
828   3 0.0000  13.711771  -2.713136 12.937627
829   3 0.0000  11.163392  -5.282510 18.300671
830   3 0.0000   8.615013  -7.851884 23.663716
831   3 0.0000  18.775494   7.576451  2.211538
832   3 0.0000  16.227115   5.007077  7.574582
833   3 0.0000  13.678736   2.437703 12.937627
834   3 0.0000  11.130357  -0.131671 18.300671
835   3 0.0000   8.581978  -2.701045 23.663716
836   3 0.0000  18.742459  12.727290  2.211538
837   3 0.0000  16.194080  10.157916  7.574582
838   3 0.0000  13.645702   7.588542 12.937627
839   3 0.0000  11.097323   5.019168 18.300671
840   3 0.0000   8.548944   2.449794 23.663716
841   3 0.0000  18.709425  17.878128  2.211538
842   3 0.0000  16.161046  15.308754  7.574582
843   3 0.0000  13.612667  12.739380 12.937627
844   3 0.0000  11.064288  10.170006 18.300671
845   3 0.0000   8.515909   7.600633 23.663716
846   3 0.0000  18.676390  23.028967  2.211538
847   3 0.0000  16.128011  20.459593  7.574582
848   3 0.0000  13.579633  17.890219 12.937627
849   3 0.0000  11.031254  15.320845 18.300671
850   3 0.0000   8.482875  12.751471 23.663716
851   3 0.0000  23.944625   2.425612  2.211538
852   3 0.0000  21.396246  -0.143762  7.574582
853   3 0.0000  18.847867  -2.713136 12.937627
854   3 0.0000  16.299489  -5.282510 18.300671
855   3 0.0000  13.751110  -7.851884 23.663716
856   3 0.0000  23.911591   7.576451  2.211538
857   3 0.0000  21.363212   5.007077  7.574582
858   3 0.0000  18.814833   2.437703 12.937627
859   3 0.0000  16.266454  -0.131671 18.300671
860   3 0.0000  13.718075  -2.701045 23.663716
861   3 0.0000  23.878556  12.727290  2.211538
862   3 0.0000  21.330177  10.157916  7.574582
863   3 0.0000  18.781798   7.588542 12.937627
864   3 0.0000  16.233420   5.019168 18.300671
865   3 0.0000  13.685041   2.449794 23.663716
866   3 0.0000  23.845522  17.878128  2.211538
867   3 0.0000  21.297143  15.308754  7.574582
868   3 0.0000  18.748764  12.739380 12.937627
869   3 0.0000  16.200385  10.170006 18.300671
870   3 0.0000  13.652006   7.600633 23.663716
871   3 0.0000  23.812487  23.028967  2.211538
872   3 0.0000  21.264108  20.459593  7.574582
873   3 0.0000  18.715729  17.890219 12.937627
874   3 0.0000  16.167351  15.320845 18.300671
875   3 0.0000  13.618972  12.751471 23.663716
876   3 0.0000   3.972156   4.697452  0.473285
877   3 0.0000   1.423778   2.128078  5.836330
878   3 0.0000  -1.124601  -0.441296 11.199374
879   3 0.0000  -3.672980  -3.010670 16.562419
880   3 0.0000  -6.221359  -5.580043 21.925463
881   3 0.0000   3.939122   9.848291  0.473285
882   3 0.0000   1.390743   7.278917  5.836330
883   3 0.0000  -1.157636   4.709543 11.199374
884   3 0.0000  -3.706014   2.140169 16.562419
885   3 0.0000  -6.254393  -0.429205 21.925463
886   3 0.0000   3.906087  14.999130  0.473285
887   3 0.0000   1.357709  12.429756  5.836330
888   3 0.0000  -1.190670   9.860382 11.199374
889   3 0.0000  -3.739049   7.291008 16.562419
890   3 0.0000  -6.287428   4.721634 21.925463
891   3 0.0000   3.873053  20.149968  0.473285
892   3 0.0000   1.324674  17.580595  5.836330
893   3 0.0000  -1.223705  15.011221 11.199374
894   3 0.0000  -3.772083  12.441847 16.562419
895   3 0.0000  -6.320462   9.872473 21.925463
896   3 0.0000   3.840018  25.300807  0.473285
897   3 0.0000   1.291640  22.731433  5.836330
898   3 0.0000  -1.256739  20.162059 11.199374
899   3 0.0000  -3.805118  17.592685 16.562419
900   3 0.0000  -6.353497  15.023312 21.925463
901   3 0.0000   9.108253   4.697452  0.473285
902   3 0.0000   6.559875   2.128078  5.836330
903   3 0.0000   4.011496  -0.441296 11.199374
904   3 0.0000   1.463117  -3.010670 16.562419
905   3 0.0000  -1.085262  -5.580043 21.925463
906   3 0.0000   9.075219   9.848291  0.473285
907   3 0.0000   6.526840   7.278917  5.836330
908   3 0.0000   3.978461   4.709543 11.199374
909   3 0.0000   1.430082   2.140169 16.562419
910   3 0.0000  -1.118296  -0.429205 21.925463
911   3 0.0000   9.042184  14.999130  0.473285
912   3 0.0000   6.493806  12.429756  5.836330
913   3 0.0000   3.945427   9.860382 11.199374
914   3 0.0000   1.397048   7.291008 16.562419
915   3 0.0000  -1.151331   4.721634 21.925463
916   3 0.0000   9.009150  20.149968  0.473285
917   3 0.0000   6.460771  17.580595  5.836330
918   3 0.0000   3.912392  15.011221 11.199374
919   3 0.0000   1.364013  12.441847 16.562419
920   3 0.0000  -1.184365   9.872473 21.925463
921   3 0.0000   8.976115  25.300807  0.473285
922   3 0.0000   6.427737  22.731433  5.836330
923   3 0.0000   3.879358  20.162059 11.199374
924   3 0.0000   1.330979  17.592685 16.562419
925   3 0.0000  -1.217400  15.023312 21.925463
926   3 0.0000  14.244350   4.697452  0.473285
927   3 0.0000  11.695971   2.128078  5.836330
928   3 0.0000   9.147593  -0.441296 11.199374
929   3 0.0000   6.599214  -3.010670 16.562419
930   3 0.0000   4.050835  -5.580043 21.925463
931   3 0.0000  14.211316   9.848291  0.473285
932   3 0.0000  11.662937   7.278917  5.836330
933   3 0.0000   9.114558   4.709543 11.199374
934   3 0.0000   6.566179   2.140169 16.562419
935   3 0.0000   4.017800  -0.429205 21.925463
936   3 0.0000  14.178281  14.999130  0.473285
937   3 0.0000  11.629902  12.429756  5.836330
938   3 0.0000   9.081524   9.860382 11.199374
939   3 0.0000   6.533145   7.291008 16.562419
940   3 0.0000   3.984766   4.721634 21.925463
941   3 0.0000  14.145247  20.149968  0.473285
942   3 0.0000  11.596868  17.580595  5.836330
943   3 0.0000   9.048489  15.011221 11.199374
944   3 0.0000   6.500110  12.441847 16.562419
945   3 0.0000   3.951731   9.872473 21.925463
946   3 0.0000  14.112212  25.300807  0.473285
947   3 0.0000  11.563833  22.731433  5.836330
948   3 0.0000   9.015455  20.162059 11.199374
949   3 0.0000   6.467076  17.592685 16.562419
950   3 0.0000   3.918697  15.023312 21.925463
951   3 0.0000  19.380447   4.697452  0.473285
952   3 0.0000  16.832068   2.128078  5.836330
953   3 0.0000  14.283689  -0.441296 11.199374
954   3 0.0000  11.735311  -3.010670 16.562419
955   3 0.0000   9.186932  -5.580043 21.925463
956   3 0.0000  19.347413   9.848291  0.473285
957   3 0.0000  16.799034   7.278917  5.836330
958   3 0.0000  14.250655   4.709543 11.199374
959   3 0.0000  11.702276   2.140169 16.562419
960   3 0.0000   9.153897  -0.429205 21.925463
961   3 0.0000  19.314378  14.999130  0.473285
962   3 0.0000  16.765999  12.429756  5.836330
963   3 0.0000  14.217620   9.860382 11.199374
964   3 0.0000  11.669242   7.291008 16.562419
965   3 0.0000   9.120863   4.721634 21.925463
966   3 0.0000  19.281344  20.149968  0.473285
967   3 0.0000  16.732965  17.580595  5.836330
968   3 0.0000  14.184586  15.011221 11.199374
969   3 0.0000  11.636207  12.441847 16.562419
970   3 0.0000   9.087828   9.872473 21.925463
971   3 0.0000  19.248309  25.300807  0.473285
972   3 0.0000  16.699930  22.731433  5.836330
973   3 0.0000  14.151551  20.162059 11.199374
974   3 0.0000  11.603173  17.592685 16.562419
975   3 0.0000   9.054794  15.023312 21.925463
976   3 0.0000  24.516544   4.697452  0.473285
977   3 0.0000  21.968165   2.128078  5.836330
978   3 0.0000  19.419786  -0.441296 11.199374
979   3 0.0000  16.871407  -3.010670 16.562419
980   3 0.0000  14.323029  -5.580043 21.925463
981   3 0.0000  24.483509   9.848291  0.473285
982   3 0.0000  21.935131   7.278917  5.836330
983   3 0.0000  19.386752   4.709543 11.199374
984   3 0.0000  16.838373   2.140169 16.562419
985   3 0.0000  14.289994  -0.429205 21.925463
986   3 0.0000  24.450475  14.999130  0.473285
987   3 0.0000  21.902096  12.429756  5.836330
988   3 0.0000  19.353717   9.860382 11.199374
989   3 0.0000  16.805338   7.291008 16.562419
990   3 0.0000  14.256960   4.721634 21.925463
991   3 0.0000  24.417440  20.149968  0.473285
992   3 0.0000  21.869062  17.580595  5.836330
993   3 0.0000  19.320683  15.011221 11.199374
994   3 0.0000  16.772304  12.441847 16.562419
995   3 0.0000  14.223925   9.872473 21.925463
996   3 0.0000  24.384406  25.300807  0.473285
997   3 0.0000  21.836027  22.731433  5.836330
998   3 0.0000  19.287648  20.162059 11.199374
999   3 0.0000  16.739269  17.592685 16.562419
1000  3 0.0000  14.190891  15.023312 21.925463
1001  3 0.0000   1.720081   0.155255  2.215177
1002  3 0.0000  -0.828298  -2.414119  7.578221
1003  3 0.0000  -3.376677  -4.983493 12.941266
1004  3 0.0000  -5.925056  -7.552867 18.304311
1005  3 0.0000  -8.473435 -10.122241 23.667355
1006  3 0.0000   1.687046   5.306094  2.215177
1007  3 0.0000  -0.861333   2.736720  7.578221
1008  3 0.0000  -3.409711   0.167346 12.941266
1009  3 0.0000  -5.958090  -2.402028 18.304311
1010  3 0.0000  -8.506469  -4.971402 23.667355
1011  3 0.0000   1.654012  10.456932  2.215177
1012  3 0.0000  -0.894367   7.887558  7.578221
1013  3 0.0000  -3.442746   5.318184 12.941266
1014  3 0.0000  -5.991125   2.748811 18.304311
1015  3 0.0000  -8.539504   0.179437 23.667355
1016  3 0.0000   1.620977  15.607771  2.215177
1017  3 0.0000  -0.927402  13.038397  7.578221
1018  3 0.0000  -3.475780  10.469023 12.941266
1019  3 0.0000  -6.024159   7.899649 18.304311
1020  3 0.0000  -8.572538   5.330275 23.667355
1021  3 0.0000   1.587943  20.758610  2.215177
1022  3 0.0000  -0.960436  18.189236  7.578221
1023  3 0.0000  -3.508815  15.619862 12.941266
1024  3 0.0000  -6.057194  13.050488 18.304311
1025  3 0.0000  -8.605573  10.481114 23.667355
1026  3 0.0000   6.856178   0.155255  2.215177
1027  3 0.0000   4.307799  -2.414119  7.578221
1028  3 0.0000   1.759420  -4.983493 12.941266
1029  3 0.0000  -0.788959  -7.552867 18.304311
1030  3 0.0000  -3.337338 -10.122241 23.667355
1031  3 0.0000   6.823143   5.306094  2.215177
1032  3 0.0000   4.274764   2.736720  7.578221
1033  3 0.0000   1.726385   0.167346 12.941266
1034  3 0.0000  -0.821993  -2.402028 18.304311
1035  3 0.0000  -3.370372  -4.971402 23.667355
1036  3 0.0000   6.790109  10.456932  2.215177
1037  3 0.0000   4.241730   7.887558  7.578221
1038  3 0.0000   1.693351   5.318184 12.941266
1039  3 0.0000  -0.855028   2.748811 18.304311
1040  3 0.0000  -3.403407   0.179437 23.667355
1041  3 0.0000   6.757074  15.607771  2.215177
1042  3 0.0000   4.208695  13.038397  7.578221
1043  3 0.0000   1.660316  10.469023 12.941266
1044  3 0.0000  -0.888062   7.899649 18.304311
1045  3 0.0000  -3.436441   5.330275 23.667355
1046  3 0.0000   6.724040  20.758610  2.215177
1047  3 0.0000   4.175661  18.189236  7.578221
1048  3 0.0000   1.627282  15.619862 12.941266
1049  3 0.0000  -0.921097  13.050488 18.304311
1050  3 0.0000  -3.469476  10.481114 23.667355
1051  3 0.0000  11.992274   0.155255  2.215177
1052  3 0.0000   9.443896  -2.414119  7.578221
1053  3 0.0000   6.895517  -4.983493 12.941266
1054  3 0.0000   4.347138  -7.552867 18.304311
1055  3 0.0000   1.798759 -10.122241 23.667355
1056  3 0.0000  11.959240   5.306094  2.215177
1057  3 0.0000   9.410861   2.736720  7.578221
1058  3 0.0000   6.862482   0.167346 12.941266
1059  3 0.0000   4.314104  -2.402028 18.304311
1060  3 0.0000   1.765725  -4.971402 23.667355
1061  3 0.0000  11.926205  10.456932  2.215177
1062  3 0.0000   9.377827   7.887558  7.578221
1063  3 0.0000   6.829448   5.318184 12.941266
1064  3 0.0000   4.281069   2.748811 18.304311
1065  3 0.0000   1.732690   0.179437 23.667355
1066  3 0.0000  11.893171  15.607771  2.215177
1067  3 0.0000   9.344792  13.038397  7.578221
1068  3 0.0000   6.796413  10.469023 12.941266
1069  3 0.0000   4.248035   7.899649 18.304311
1070  3 0.0000   1.699656   5.330275 23.667355
1071  3 0.0000  11.860136  20.758610  2.215177
1072  3 0.0000   9.311758  18.189236  7.578221
1073  3 0.0000   6.763379  15.619862 12.941266
1074  3 0.0000   4.215000  13.050488 18.304311
1075  3 0.0000   1.666621  10.481114 23.667355
1076  3 0.0000  17.128371   0.155255  2.215177
1077  3 0.0000  14.579993  -2.414119  7.578221
1078  3 0.0000  12.031614  -4.983493 12.941266
1079  3 0.0000   9.483235  -7.552867 18.304311
1080  3 0.0000   6.934856 -10.122241 23.667355
1081  3 0.0000  17.095337   5.306094  2.215177
1082  3 0.0000  14.546958   2.736720  7.578221
1083  3 0.0000  11.998579   0.167346 12.941266
1084  3 0.0000   9.450200  -2.402028 18.304311
1085  3 0.0000   6.901822  -4.971402 23.667355
1086  3 0.0000  17.062302  10.456932  2.215177
1087  3 0.0000  14.513924   7.887558  7.578221
1088  3 0.0000  11.965545   5.318184 12.941266
1089  3 0.0000   9.417166   2.748811 18.304311
1090  3 0.0000   6.868787   0.179437 23.667355
1091  3 0.0000  17.029268  15.607771  2.215177
1092  3 0.0000  14.480889  13.038397  7.578221
1093  3 0.0000  11.932510  10.469023 12.941266
1094  3 0.0000   9.384131   7.899649 18.304311
1095  3 0.0000   6.835753   5.330275 23.667355
1096  3 0.0000  16.996233  20.758610  2.215177
1097  3 0.0000  14.447855  18.189236  7.578221
1098  3 0.0000  11.899476  15.619862 12.941266
1099  3 0.0000   9.351097  13.050488 18.304311
1100  3 0.0000   6.802718  10.481114 23.667355
1101  3 0.0000  22.264468   0.155255  2.215177
1102  3 0.0000  19.716089  -2.414119  7.578221
1103  3 0.0000  17.167711  -4.983493 12.941266
1104  3 0.0000  14.619332  -7.552867 18.304311
1105  3 0.0000  12.070953 -10.122241 23.667355
1106  3 0.0000  22.231434   5.306094  2.215177
1107  3 0.0000  19.683055   2.736720  7.578221
1108  3 0.0000  17.134676   0.167346 12.941266
1109  3 0.0000  14.586297  -2.402028 18.304311
1110  3 0.0000  12.037918  -4.971402 23.667355
1111  3 0.0000  22.198399  10.456932  2.215177
1112  3 0.0000  19.650020   7.887558  7.578221
1113  3 0.0000  17.101642   5.318184 12.941266
1114  3 0.0000  14.553263   2.748811 18.304311
1115  3 0.0000  12.004884   0.179437 23.667355
1116  3 0.0000  22.165365  15.607771  2.215177
1117  3 0.0000  19.616986  13.038397  7.578221
1118  3 0.0000  17.068607  10.469023 12.941266
1119  3 0.0000  14.520228   7.899649 18.304311
1120  3 0.0000  11.971849   5.330275 23.667355
1121  3 0.0000  22.132330  20.758610  2.215177
1122  3 0.0000  19.583951  18.189236  7.578221
1123  3 0.0000  17.035573  15.619862 12.941266
1124  3 0.0000  14.487194  13.050488 18.304311
1125  3 0.0000  11.938815  10.481114 23.667355
1126  3 0.0000  -0.845554   0.155853  3.151507
1127  3 0.0000  -3.393933  -2.413521  8.514552
1128  3 0.0000  -5.942312  -4.982895 13.877596
1129  3 0.0000  -8.490690  -7.552269 19.240641
1130  3 0.0000 -11.039069 -10.121643 24.603685
1131  3 0.0000  -0.878589   5.306692  3.151507
1132  3 0.0000  -3.426967   2.737318  8.514552
1133  3 0.0000  -5.975346   0.167944 13.877596
1134  3 0.0000  -8.523725  -2.401430 19.240641
1135  3 0.0000 -11.072104  -4.970804 24.603685
1136  3 0.0000  -0.911623  10.457530  3.151507
1137  3 0.0000  -3.460002   7.888156  8.514552
1138  3 0.0000  -6.008381   5.318782 13.877596
1139  3 0.0000  -8.556759   2.749409 19.240641
1140  3 0.0000 -11.105138   0.180035 24.603685
1141  3 0.0000  -0.944658  15.608369  3.151507
1142  3 0.0000  -3.493036  13.038995  8.514552
1143  3 0.0000  -6.041415  10.469621 13.877596
1144  3 0.0000  -8.589794   7.900247 19.240641
1145  3 0.0000 -11.138173   5.330873 24.603685
1146  3 0.0000  -0.977692  20.759208  3.151507
1147  3 0.0000  -3.526071  18.189834  8.514552
1148  3 0.0000  -6.074450  15.620460 13.877596
1149  3 0.0000  -8.622828  13.051086 19.240641
1150  3 0.0000 -11.171207  10.481712 24.603685
1151  3 0.0000   4.290543   0.155853  3.151507
1152  3 0.0000   1.742164  -2.413521  8.514552
1153  3 0.0000  -0.806215  -4.982895 13.877596
1154  3 0.0000  -3.354594  -7.552269 19.240641
1155  3 0.0000  -5.902972 -10.121643 24.603685
1156  3 0.0000   4.257508   5.306692  3.151507
1157  3 0.0000   1.709130   2.737318  8.514552
1158  3 0.0000  -0.839249   0.167944 13.877596
1159  3 0.0000  -3.387628  -2.401430 19.240641
1160  3 0.0000  -5.936007  -4.970804 24.603685
1161  3 0.0000   4.224474  10.457530  3.151507
1162  3 0.0000   1.676095   7.888156  8.514552
1163  3 0.0000  -0.872284   5.318782 13.877596
1164  3 0.0000  -3.420663   2.749409 19.240641
1165  3 0.0000  -5.969041   0.180035 24.603685
1166  3 0.0000   4.191439  15.608369  3.151507
1167  3 0.0000   1.643061  13.038995  8.514552
1168  3 0.0000  -0.905318  10.469621 13.877596
1169  3 0.0000  -3.453697   7.900247 19.240641
1170  3 0.0000  -6.002076   5.330873 24.603685
1171  3 0.0000   4.158405  20.759208  3.151507
1172  3 0.0000   1.610026  18.189834  8.514552
1173  3 0.0000  -0.938353  15.620460 13.877596
1174  3 0.0000  -3.486732  13.051086 19.240641
1175  3 0.0000  -6.035110  10.481712 24.603685
1176  3 0.0000   9.426640   0.155853  3.151507
1177  3 0.0000   6.878261  -2.413521  8.514552
1178  3 0.0000   4.329882  -4.982895 13.877596
1179  3 0.0000   1.781503  -7.552269 19.240641
1180  3 0.0000  -0.766876 -10.121643 24.603685
1181  3 0.0000   9.393605   5.306692  3.151507
1182  3 0.0000   6.845226   2.737318  8.514552
1183  3 0.0000   4.296848   0.167944 13.877596
1184  3 0.0000   1.748469  -2.401430 19.240641
1185  3 0.0000  -0.799910  -4.970804 24.603685
1186  3 0.0000   9.360571  10.457530  3.151507
1187  3 0.0000   6.812192   7.888156  8.514552
1188  3 0.0000   4.263813   5.318782 13.877596
1189  3 0.0000   1.715434   2.749409 19.240641
1190  3 0.0000  -0.832945   0.180035 24.603685
1191  3 0.0000   9.327536  15.608369  3.151507
1192  3 0.0000   6.779157  13.038995  8.514552
1193  3 0.0000   4.230779  10.469621 13.877596
1194  3 0.0000   1.682400   7.900247 19.240641
1195  3 0.0000  -0.865979   5.330873 24.603685
1196  3 0.0000   9.294502  20.759208  3.151507
1197  3 0.0000   6.746123  18.189834  8.514552
1198  3 0.0000   4.197744  15.620460 13.877596
1199  3 0.0000   1.649365  13.051086 19.240641
1200  3 0.0000  -0.899014  10.481712 24.603685
1201  3 0.0000  14.562737   0.155853  3.151507
1202  3 0.0000  12.014358  -2.413521  8.514552
1203  3 0.0000   9.465979  -4.982895 13.877596
1204  3 0.0000   6.917600  -7.552269 19.240641
1205  3 0.0000   4.369221 -10.121643 24.603685
1206  3 0.0000  14.529702   5.306692  3.151507
1207  3 0.0000  11.981323   2.737318  8.514552
1208  3 0.0000   9.432944   0.167944 13.877596
1209  3 0.0000   6.884566  -2.401430 19.240641
1210  3 0.0000   4.336187  -4.970804 24.603685
1211  3 0.0000  14.496668  10.457530  3.151507
1212  3 0.0000  11.948289   7.888156  8.514552
1213  3 0.0000   9.399910   5.318782 13.877596
1214  3 0.0000   6.851531   2.749409 19.240641
1215  3 0.0000   4.303152   0.180035 24.603685
1216  3 0.0000  14.463633  15.608369  3.151507
1217  3 0.0000  11.915254  13.038995  8.514552
1218  3 0.0000   9.366875  10.469621 13.877596
1219  3 0.0000   6.818497   7.900247 19.240641
1220  3 0.0000   4.270118   5.330873 24.603685
1221  3 0.0000  14.430599  20.759208  3.151507
1222  3 0.0000  11.882220  18.189834  8.514552
1223  3 0.0000   9.333841  15.620460 13.877596
1224  3 0.0000   6.785462  13.051086 19.240641
1225  3 0.0000   4.237083  10.481712 24.603685
1226  3 0.0000  19.698833   0.155853  3.151507
1227  3 0.0000  17.150455  -2.413521  8.514552
1228  3 0.0000  14.602076  -4.982895 13.877596
1229  3 0.0000  12.053697  -7.552269 19.240641
1230  3 0.0000   9.505318 -10.121643 24.603685
1231  3 0.0000  19.665799   5.306692  3.151507
1232  3 0.0000  17.117420   2.737318  8.514552
1233  3 0.0000  14.569041   0.167944 13.877596
1234  3 0.0000  12.020662  -2.401430 19.240641
1235  3 0.0000   9.472284  -4.970804 24.603685
1236  3 0.0000  19.632764  10.457530  3.151507
1237  3 0.0000  17.084386   7.888156  8.514552
1238  3 0.0000  14.536007   5.318782 13.877596
1239  3 0.0000  11.987628   2.749409 19.240641
1240  3 0.0000   9.439249   0.180035 24.603685
1241  3 0.0000  19.599730  15.608369  3.151507
1242  3 0.0000  17.051351  13.038995  8.514552
1243  3 0.0000  14.502972  10.469621 13.877596
1244  3 0.0000  11.954593   7.900247 19.240641
1245  3 0.0000   9.406215   5.330873 24.603685
1246  3 0.0000  19.566695  20.759208  3.151507
1247  3 0.0000  17.018317  18.189834  8.514552
1248  3 0.0000  14.469938  15.620460 13.877596
1249  3 0.0000  11.921559  13.051086 19.240641
1250  3 0.0000   9.373180  10.481712 24.603685
1251  3 0.0000  -1.417473  -2.115987  4.889759
1252  3 0.0000  -3.965852  -4.685361 10.252804
1253  3 0.0000  -6.514231  -7.254735 15.615849
1254  3 0.0000  -9.062609  -9.824109 20.978893
1255  3 0.0000 -11.610988 -12.393483 26.341938
1256  3 0.0000  -1.450507   3.034851  4.889759
1257  3 0.0000  -3.998886   0.465477 10.252804
1258  3 0.0000  -6.547265  -2.103897 15.615849
1259  3 0.0000  -9.095644  -4.673270 20.978893
1260  3 0.0000 -11.644023  -7.242644 26.341938
1261  3 0.0000  -1.483542   8.185690  4.889759
1262  3 0.0000  -4.031921   5.616316 10.252804
1263  3 0.0000  -6.580300   3.046942 15.615849
1264  3 0.0000  -9.128678   0.477568 20.978893
1265  3 0.0000 -11.677057  -2.091806 26.341938
1266  3 0.0000  -1.516576  13.336529  4.889759
1267  3 0.0000  -4.064955  10.767155 10.252804
1268  3 0.0000  -6.613334   8.197781 15.615849
1269  3 0.0000  -9.161713   5.628407 20.978893
1270  3 0.0000 -11.710092   3.059033 26.341938
1271  3 0.0000  -1.549611  18.487368  4.889759
1272  3 0.0000  -4.097990  15.917994 10.252804
1273  3 0.0000  -6.646369  13.348620 15.615849
1274  3 0.0000  -9.194747  10.779246 20.978893
1275  3 0.0000 -11.743126   8.209872 26.341938
1276  3 0.0000   3.718624  -2.115987  4.889759
1277  3 0.0000   1.170245  -4.685361 10.252804
1278  3 0.0000  -1.378134  -7.254735 15.615849
1279  3 0.0000  -3.926513  -9.824109 20.978893
1280  3 0.0000  -6.474891 -12.393483 26.341938
1281  3 0.0000   3.685589   3.034851  4.889759
1282  3 0.0000   1.137211   0.465477 10.252804
1283  3 0.0000  -1.411168  -2.103897 15.615849
1284  3 0.0000  -3.959547  -4.673270 20.978893
1285  3 0.0000  -6.507926  -7.242644 26.341938
1286  3 0.0000   3.652555   8.185690  4.889759
1287  3 0.0000   1.104176   5.616316 10.252804
1288  3 0.0000  -1.444203   3.046942 15.615849
1289  3 0.0000  -3.992582   0.477568 20.978893
1290  3 0.0000  -6.540960  -2.091806 26.341938
1291  3 0.0000   3.619520  13.336529  4.889759
1292  3 0.0000   1.071142  10.767155 10.252804
1293  3 0.0000  -1.477237   8.197781 15.615849
1294  3 0.0000  -4.025616   5.628407 20.978893
1295  3 0.0000  -6.573995   3.059033 26.341938
1296  3 0.0000   3.586486  18.487368  4.889759
1297  3 0.0000   1.038107  15.917994 10.252804
1298  3 0.0000  -1.510272  13.348620 15.615849
1299  3 0.0000  -4.058651  10.779246 20.978893
1300  3 0.0000  -6.607029   8.209872 26.341938
1301  3 0.0000   8.854721  -2.115987  4.889759
1302  3 0.0000   6.306342  -4.685361 10.252804
1303  3 0.0000   3.757963  -7.254735 15.615849
1304  3 0.0000   1.209584  -9.824109 20.978893
1305  3 0.0000  -1.338794 -12.393483 26.341938
1306  3 0.0000   8.821686   3.034851  4.889759
1307  3 0.0000   6.273307   0.465477 10.252804
1308  3 0.0000   3.724929  -2.103897 15.615849
1309  3 0.0000   1.176550  -4.673270 20.978893
1310  3 0.0000  -1.371829  -7.242644 26.341938
1311  3 0.0000   8.788652   8.185690  4.889759
1312  3 0.0000   6.240273   5.616316 10.252804
1313  3 0.0000   3.691894   3.046942 15.615849
1314  3 0.0000   1.143515   0.477568 20.978893
1315  3 0.0000  -1.404863  -2.091806 26.341938
1316  3 0.0000   8.755617  13.336529  4.889759
1317  3 0.0000   6.207238  10.767155 10.252804
1318  3 0.0000   3.658860   8.197781 15.615849
1319  3 0.0000   1.110481   5.628407 20.978893
1320  3 0.0000  -1.437898   3.059033 26.341938
1321  3 0.0000   8.722583  18.487368  4.889759
1322  3 0.0000   6.174204  15.917994 10.252804
1323  3 0.0000   3.625825  13.348620 15.615849
1324  3 0.0000   1.077446  10.779246 20.978893
1325  3 0.0000  -1.470932   8.209872 26.341938
1326  3 0.0000  13.990818  -2.115987  4.889759
1327  3 0.0000  11.442439  -4.685361 10.252804
1328  3 0.0000   8.894060  -7.254735 15.615849
1329  3 0.0000   6.345681  -9.824109 20.978893
1330  3 0.0000   3.797302 -12.393483 26.341938
1331  3 0.0000  13.957783   3.034851  4.889759
1332  3 0.0000  11.409404   0.465477 10.252804
1333  3 0.0000   8.861026  -2.103897 15.615849
1334  3 0.0000   6.312647  -4.673270 20.978893
1335  3 0.0000   3.764268  -7.242644 26.341938
1336  3 0.0000  13.924749   8.185690  4.889759
1337  3 0.0000  11.376370   5.616316 10.252804
1338  3 0.0000   8.827991   3.046942 15.615849
1339  3 0.0000   6.279612   0.477568 20.978893
1340  3 0.0000   3.731233  -2.091806 26.341938
1341  3 0.0000  13.891714  13.336529  4.889759
1342  3 0.0000  11.343335  10.767155 10.252804
1343  3 0.0000   8.794957   8.197781 15.615849
1344  3 0.0000   6.246578   5.628407 20.978893
1345  3 0.0000   3.698199   3.059033 26.341938
1346  3 0.0000  13.858680  18.487368  4.889759
1347  3 0.0000  11.310301  15.917994 10.252804
1348  3 0.0000   8.761922  13.348620 15.615849
1349  3 0.0000   6.213543  10.779246 20.978893
1350  3 0.0000   3.665164   8.209872 26.341938
1351  3 0.0000  19.126915  -2.115987  4.889759
1352  3 0.0000  16.578536  -4.685361 10.252804
1353  3 0.0000  14.030157  -7.254735 15.615849
1354  3 0.0000  11.481778  -9.824109 20.978893
1355  3 0.0000   8.933399 -12.393483 26.341938
1356  3 0.0000  19.093880   3.034851  4.889759
1357  3 0.0000  16.545501   0.465477 10.252804
1358  3 0.0000  13.997122  -2.103897 15.615849
1359  3 0.0000  11.448744  -4.673270 20.978893
1360  3 0.0000   8.900365  -7.242644 26.341938
1361  3 0.0000  19.060846   8.185690  4.889759
1362  3 0.0000  16.512467   5.616316 10.252804
1363  3 0.0000  13.964088   3.046942 15.615849
1364  3 0.0000  11.415709   0.477568 20.978893
1365  3 0.0000   8.867330  -2.091806 26.341938
1366  3 0.0000  19.027811  13.336529  4.889759
1367  3 0.0000  16.479432  10.767155 10.252804
1368  3 0.0000  13.931053   8.197781 15.615849
1369  3 0.0000  11.382675   5.628407 20.978893
1370  3 0.0000   8.834296   3.059033 26.341938
1371  3 0.0000  18.994777  18.487368  4.889759
1372  3 0.0000  16.446398  15.917994 10.252804
1373  3 0.0000  13.898019  13.348620 15.615849
1374  3 0.0000  11.349640  10.779246 20.978893
1375  3 0.0000   8.801261   8.209872 26.341938
1376  3 0.0000   1.442668  -0.448141  4.890262
1377  3 0.0000  -1.105711  -3.017515 10.253307
1378  3 0.0000  -3.654090  -5.586889 15.616351
1379  3 0.0000  -6.202469  -8.156263 20.979396
1380  3 0.0000  -8.750847 -10.725637 26.342441
1381  3 0.0000   1.409633   4.702698  4.890262
1382  3 0.0000  -1.138745   2.133324 10.253307
1383  3 0.0000  -3.687124  -0.436050 15.616351
1384  3 0.0000  -6.235503  -3.005424 20.979396
1385  3 0.0000  -8.783882  -5.574798 26.342441
1386  3 0.0000   1.376599   9.853536  4.890262
1387  3 0.0000  -1.171780   7.284162 10.253307
1388  3 0.0000  -3.720159   4.714788 15.616351
1389  3 0.0000  -6.268538   2.145415 20.979396
1390  3 0.0000  -8.816916  -0.423959 26.342441
1391  3 0.0000   1.343564  15.004375  4.890262
1392  3 0.0000  -1.204814  12.435001 10.253307
1393  3 0.0000  -3.753193   9.865627 15.616351
1394  3 0.0000  -6.301572   7.296253 20.979396
1395  3 0.0000  -8.849951   4.726879 26.342441
1396  3 0.0000   1.310530  20.155214  4.890262
1397  3 0.0000  -1.237849  17.585840 10.253307
1398  3 0.0000  -3.786228  15.016466 15.616351
1399  3 0.0000  -6.334607  12.447092 20.979396
1400  3 0.0000  -8.882985   9.877718 26.342441
1401  3 0.0000   6.578765  -0.448141  4.890262
1402  3 0.0000   4.030386  -3.017515 10.253307
1403  3 0.0000   1.482007  -5.586889 15.616351
1404  3 0.0000  -1.066372  -8.156263 20.979396
1405  3 0.0000  -3.614750 -10.725637 26.342441
1406  3 0.0000   6.545730   4.702698  4.890262
1407  3 0.0000   3.997351   2.133324 10.253307
1408  3 0.0000   1.448973  -0.436050 15.616351
1409  3 0.0000  -1.099406  -3.005424 20.979396
1410  3 0.0000  -3.647785  -5.574798 26.342441
1411  3 0.0000   6.512696   9.853536  4.890262
1412  3 0.0000   3.964317   7.284162 10.253307
1413  3 0.0000   1.415938   4.714788 15.616351
1414  3 0.0000  -1.132441   2.145415 20.979396
1415  3 0.0000  -3.680819  -0.423959 26.342441
1416  3 0.0000   6.479661  15.004375  4.890262
1417  3 0.0000   3.931282  12.435001 10.253307
1418  3 0.0000   1.382904   9.865627 15.616351
1419  3 0.0000  -1.165475   7.296253 20.979396
1420  3 0.0000  -3.713854   4.726879 26.342441
1421  3 0.0000   6.446627  20.155214  4.890262
1422  3 0.0000   3.898248  17.585840 10.253307
1423  3 0.0000   1.349869  15.016466 15.616351
1424  3 0.0000  -1.198510  12.447092 20.979396
1425  3 0.0000  -3.746888   9.877718 26.342441
1426  3 0.0000  11.714862  -0.448141  4.890262
1427  3 0.0000   9.166483  -3.017515 10.253307
1428  3 0.0000   6.618104  -5.586889 15.616351
1429  3 0.0000   4.069725  -8.156263 20.979396
1430  3 0.0000   1.521346 -10.725637 26.342441
1431  3 0.0000  11.681827   4.702698  4.890262
1432  3 0.0000   9.133448   2.133324 10.253307
1433  3 0.0000   6.585070  -0.436050 15.616351
1434  3 0.0000   4.036691  -3.005424 20.979396
1435  3 0.0000   1.488312  -5.574798 26.342441
1436  3 0.0000  11.648793   9.853536  4.890262
1437  3 0.0000   9.100414   7.284162 10.253307
1438  3 0.0000   6.552035   4.714788 15.616351
1439  3 0.0000   4.003656   2.145415 20.979396
1440  3 0.0000   1.455277  -0.423959 26.342441
1441  3 0.0000  11.615758  15.004375  4.890262
1442  3 0.0000   9.067379  12.435001 10.253307
1443  3 0.0000   6.519001   9.865627 15.616351
1444  3 0.0000   3.970622   7.296253 20.979396
1445  3 0.0000   1.422243   4.726879 26.342441
1446  3 0.0000  11.582724  20.155214  4.890262
1447  3 0.0000   9.034345  17.585840 10.253307
1448  3 0.0000   6.485966  15.016466 15.616351
1449  3 0.0000   3.937587  12.447092 20.979396
1450  3 0.0000   1.389208   9.877718 26.342441
1451  3 0.0000  16.850959  -0.448141  4.890262
1452  3 0.0000  14.302580  -3.017515 10.253307
1453  3 0.0000  11.754201  -5.586889 15.616351
1454  3 0.0000   9.205822  -8.156263 20.979396
1455  3 0.0000   6.657443 -10.725637 26.342441
1456  3 0.0000  16.817924   4.702698  4.890262
1457  3 0.0000  14.269545   2.133324 10.253307
1458  3 0.0000  11.721166  -0.436050 15.616351
1459  3 0.0000   9.172788  -3.005424 20.979396
1460  3 0.0000   6.624409  -5.574798 26.342441
1461  3 0.0000  16.784890   9.853536  4.890262
1462  3 0.0000  14.236511   7.284162 10.253307
1463  3 0.0000  11.688132   4.714788 15.616351
1464  3 0.0000   9.139753   2.145415 20.979396
1465  3 0.0000   6.591374  -0.423959 26.342441
1466  3 0.0000  16.751855  15.004375  4.890262
1467  3 0.0000  14.203476  12.435001 10.253307
1468  3 0.0000  11.655097   9.865627 15.616351
1469  3 0.0000   9.106719   7.296253 20.979396
1470  3 0.0000   6.558340   4.726879 26.342441
1471  3 0.0000  16.718821  20.155214  4.890262
1472  3 0.0000  14.170442  17.585840 10.253307
1473  3 0.0000  11.622063  15.016466 15.616351
1474  3 0.0000   9.073684  12.447092 20.979396
1475  3 0.0000   6.525305   9.877718 26.342441
1476  3 0.0000  21.987055  -0.448141  4.890262
1477  3 0.0000  19.438677  -3.017515 10.253307
1478  3 0.0000  16.890298  -5.586889 15.616351
1479  3 0.0000  14.341919  -8.156263 20.979396
1480  3 0.0000  11.793540 -10.725637 26.342441
1481  3 0.0000  21.954021   4.702698  4.890262
1482  3 0.0000  19.405642   2.133324 10.253307
1483  3 0.0000  16.857263  -0.436050 15.616351
1484  3 0.0000  14.308884  -3.005424 20.979396
1485  3 0.0000  11.760506  -5.574798 26.342441
1486  3 0.0000  21.920986   9.853536  4.890262
1487  3 0.0000  19.372608   7.284162 10.253307
1488  3 0.0000  16.824229   4.714788 15.616351
1489  3 0.0000  14.275850   2.145415 20.979396
1490  3 0.0000  11.727471  -0.423959 26.342441
1491  3 0.0000  21.887952  15.004375  4.890262
1492  3 0.0000  19.339573  12.435001 10.253307
1493  3 0.0000  16.791194   9.865627 15.616351
1494  3 0.0000  14.242815   7.296253 20.979396
1495  3 0.0000  11.694437   4.726879 26.342441
1496  3 0.0000  21.854917  20.155214  4.890262
1497  3 0.0000  19.306539  17.585840 10.253307
1498  3 0.0000  16.758160  15.016466 15.616351
1499  3 0.0000  14.209781  12.447092 20.979396
1500  3 0.0000  11.661402   9.877718 26.342441

