Generated by pymatgen.io.lammps.data.LammpsData

1500  atoms

   3  atom types

0.000000 29.733842  xlo xhi
0.000000 26.709286  ylo yhi
0.000000 25.224967  zlo zhi
-13.065803 -8.334023 -13.354650  xy xz yz

Masses

1  88.90585
2  50.94150
3  15.99940

Atoms

1     1 0.0000  -1.959871   4.006393  1.261248
2     1 0.0000  -3.626675   1.335462  6.306242
3     1 0.0000  -5.293480  -1.335468 11.351235
4     1 0.0000  -6.960285  -4.006398 16.396229
5     1 0.0000  -8.627089  -6.677328 21.441222
6     1 0.0000  -4.573031   9.348250  1.261248
7     1 0.0000  -6.239836   6.677320  6.306242
8     1 0.0000  -7.906641   4.006390 11.351235
9     1 0.0000  -9.573445   1.335459 16.396229
10    1 0.0000 -11.240250  -1.335471 21.441222
11    1 0.0000  -7.186192  14.690107  1.261248
12    1 0.0000  -8.852997  12.019177  6.306242
13    1 0.0000 -10.519801   9.348247 11.351235
14    1 0.0000 -12.186606   6.677317 16.396229
15    1 0.0000 -13.853411   4.006387 21.441222
16    1 0.0000  -9.799353  20.031964  1.261248
17    1 0.0000 -11.466157  17.361034  6.306242
18    1 0.0000 -13.132962  14.690104 11.351235
19    1 0.0000 -14.799767  12.019174 16.396229
20    1 0.0000 -16.466571   9.348244 21.441222
21    1 0.0000 -12.412513  25.373821  1.261248
22    1 0.0000 -14.079318  22.702891  6.306242
23    1 0.0000 -15.746123  20.031961 11.351235
24    1 0.0000 -17.412927  17.361031 16.396229
25    1 0.0000 -19.079732  14.690101 21.441222
26    1 0.0000   3.986898   4.006393  1.261248
27    1 0.0000   2.320093   1.335462  6.306242
28    1 0.0000   0.653288  -1.335468 11.351235
29    1 0.0000  -1.013516  -4.006398 16.396229
30    1 0.0000  -2.680321  -6.677328 21.441222
31    1 0.0000   1.373737   9.348250  1.261248
32    1 0.0000  -0.293068   6.677320  6.306242
33    1 0.0000  -1.959872   4.006390 11.351235
34    1 0.0000  -3.626677   1.335459 16.396229
35    1 0.0000  -5.293481  -1.335471 21.441222
36    1 0.0000  -1.239424  14.690107  1.261248
37    1 0.0000  -2.906228  12.019177  6.306242
38    1 0.0000  -4.573033   9.348247 11.351235
39    1 0.0000  -6.239838   6.677317 16.396229
40    1 0.0000  -7.906642   4.006387 21.441222
41    1 0.0000  -3.852584  20.031964  1.261248
42    1 0.0000  -5.519389  17.361034  6.306242
43    1 0.0000  -7.186194  14.690104 11.351235
44    1 0.0000  -8.852998  12.019174 16.396229
45    1 0.0000 -10.519803   9.348244 21.441222
46    1 0.0000  -6.465745  25.373821  1.261248
47    1 0.0000  -8.132550  22.702891  6.306242
48    1 0.0000  -9.799354  20.031961 11.351235
49    1 0.0000 -11.466159  17.361031 16.396229
50    1 0.0000 -13.132964  14.690101 21.441222
51    1 0.0000   9.933666   4.006393  1.261248
52    1 0.0000   8.266862   1.335462  6.306242
53    1 0.0000   6.600057  -1.335468 11.351235
54    1 0.0000   4.933252  -4.006398 16.396229
55    1 0.0000   3.266448  -6.677328 21.441222
56    1 0.0000   7.320506   9.348250  1.261248
57    1 0.0000   5.653701   6.677320  6.306242
58    1 0.0000   3.986896   4.006390 11.351235
59    1 0.0000   2.320092   1.335459 16.396229
60    1 0.0000   0.653287  -1.335471 21.441222
61    1 0.0000   4.707345  14.690107  1.261248
62    1 0.0000   3.040540  12.019177  6.306242
63    1 0.0000   1.373736   9.348247 11.351235
64    1 0.0000  -0.293069   6.677317 16.396229
65    1 0.0000  -1.959874   4.006387 21.441222
66    1 0.0000   2.094184  20.031964  1.261248
67    1 0.0000   0.427380  17.361034  6.306242
68    1 0.0000  -1.239425  14.690104 11.351235
69    1 0.0000  -2.906230  12.019174 16.396229
70    1 0.0000  -4.573034   9.348244 21.441222
71    1 0.0000  -0.518977  25.373821  1.261248
72    1 0.0000  -2.185781  22.702891  6.306242
73    1 0.0000  -3.852586  20.031961 11.351235
74    1 0.0000  -5.519390  17.361031 16.396229
75    1 0.0000  -7.186195  14.690101 21.441222
76    1 0.0000  15.880435   4.006393  1.261248
77    1 0.0000  14.213630   1.335462  6.306242
78    1 0.0000  12.546825  -1.335468 11.351235
79    1 0.0000  10.880021  -4.006398 16.396229
80    1 0.0000   9.213216  -6.677328 21.441222
81    1 0.0000  13.267274   9.348250  1.261248
82    1 0.0000  11.600469   6.677320  6.306242
83    1 0.0000   9.933665   4.006390 11.351235
84    1 0.0000   8.266860   1.335459 16.396229
85    1 0.0000   6.600055  -1.335471 21.441222
86    1 0.0000  10.654113  14.690107  1.261248
87    1 0.0000   8.987309  12.019177  6.306242
88    1 0.0000   7.320504   9.348247 11.351235
89    1 0.0000   5.653699   6.677317 16.396229
90    1 0.0000   3.986895   4.006387 21.441222
91    1 0.0000   8.040953  20.031964  1.261248
92    1 0.0000   6.374148  17.361034  6.306242
93    1 0.0000   4.707343  14.690104 11.351235
94    1 0.0000   3.040539  12.019174 16.396229
95    1 0.0000   1.373734   9.348244 21.441222
96    1 0.0000   5.427792  25.373821  1.261248
97    1 0.0000   3.760987  22.702891  6.306242
98    1 0.0000   2.094183  20.031961 11.351235
99    1 0.0000   0.427378  17.361031 16.396229
100   1 0.0000  -1.239427  14.690101 21.441222
101   1 0.0000  21.827203   4.006393  1.261248
102   1 0.0000  20.160399   1.335462  6.306242
103   1 0.0000  18.493594  -1.335468 11.351235
104   1 0.0000  16.826789  -4.006398 16.396229
105   1 0.0000  15.159985  -6.677328 21.441222
106   1 0.0000  19.214042   9.348250  1.261248
107   1 0.0000  17.547238   6.677320  6.306242
108   1 0.0000  15.880433   4.006390 11.351235
109   1 0.0000  14.213629   1.335459 16.396229
110   1 0.0000  12.546824  -1.335471 21.441222
111   1 0.0000  16.600882  14.690107  1.261248
112   1 0.0000  14.934077  12.019177  6.306242
113   1 0.0000  13.267272   9.348247 11.351235
114   1 0.0000  11.600468   6.677317 16.396229
115   1 0.0000   9.933663   4.006387 21.441222
116   1 0.0000  13.987721  20.031964  1.261248
117   1 0.0000  12.320916  17.361034  6.306242
118   1 0.0000  10.654112  14.690104 11.351235
119   1 0.0000   8.987307  12.019174 16.396229
120   1 0.0000   7.320503   9.348244 21.441222
121   1 0.0000  11.374560  25.373821  1.261248
122   1 0.0000   9.707756  22.702891  6.306242
123   1 0.0000   8.040951  20.031961 11.351235
124   1 0.0000   6.374146  17.361031 16.396229
125   1 0.0000   4.707342  14.690101 21.441222
126   1 0.0000   3.626674  -1.335465  3.783745
127   1 0.0000   1.959869  -4.006395  8.828738
128   1 0.0000   0.293065  -6.677326 13.873732
129   1 0.0000  -1.373740  -9.348256 18.918725
130   1 0.0000  -3.040545 -12.019186 23.963719
131   1 0.0000   1.013513   4.006392  3.783745
132   1 0.0000  -0.653291   1.335462  8.828738
133   1 0.0000  -2.320096  -1.335468 13.873732
134   1 0.0000  -3.986901  -4.006398 18.918725
135   1 0.0000  -5.653705  -6.677329 23.963719
136   1 0.0000  -1.599648   9.348249  3.783745
137   1 0.0000  -3.266452   6.677319  8.828738
138   1 0.0000  -4.933257   4.006389 13.873732
139   1 0.0000  -6.600061   1.335459 18.918725
140   1 0.0000  -8.266866  -1.335471 23.963719
141   1 0.0000  -4.212808  14.690106  3.783745
142   1 0.0000  -5.879613  12.019176  8.828738
143   1 0.0000  -7.546417   9.348246 13.873732
144   1 0.0000  -9.213222   6.677316 18.918725
145   1 0.0000 -10.880027   4.006386 23.963719
146   1 0.0000  -6.825969  20.031963  3.783745
147   1 0.0000  -8.492774  17.361033  8.828738
148   1 0.0000 -10.159578  14.690103 13.873732
149   1 0.0000 -11.826383  12.019173 18.918725
150   1 0.0000 -13.493187   9.348243 23.963719
151   1 0.0000   9.573442  -1.335465  3.783745
152   1 0.0000   7.906638  -4.006395  8.828738
153   1 0.0000   6.239833  -6.677326 13.873732
154   1 0.0000   4.573028  -9.348256 18.918725
155   1 0.0000   2.906224 -12.019186 23.963719
156   1 0.0000   6.960282   4.006392  3.783745
157   1 0.0000   5.293477   1.335462  8.828738
158   1 0.0000   3.626672  -1.335468 13.873732
159   1 0.0000   1.959868  -4.006398 18.918725
160   1 0.0000   0.293063  -6.677329 23.963719
161   1 0.0000   4.347121   9.348249  3.783745
162   1 0.0000   2.680316   6.677319  8.828738
163   1 0.0000   1.013512   4.006389 13.873732
164   1 0.0000  -0.653293   1.335459 18.918725
165   1 0.0000  -2.320098  -1.335471 23.963719
166   1 0.0000   1.733960  14.690106  3.783745
167   1 0.0000   0.067156  12.019176  8.828738
168   1 0.0000  -1.599649   9.348246 13.873732
169   1 0.0000  -3.266454   6.677316 18.918725
170   1 0.0000  -4.933258   4.006386 23.963719
171   1 0.0000  -0.879200  20.031963  3.783745
172   1 0.0000  -2.546005  17.361033  8.828738
173   1 0.0000  -4.212810  14.690103 13.873732
174   1 0.0000  -5.879614  12.019173 18.918725
175   1 0.0000  -7.546419   9.348243 23.963719
176   1 0.0000  15.520211  -1.335465  3.783745
177   1 0.0000  13.853406  -4.006395  8.828738
178   1 0.0000  12.186601  -6.677326 13.873732
179   1 0.0000  10.519797  -9.348256 18.918725
180   1 0.0000   8.852992 -12.019186 23.963719
181   1 0.0000  12.907050   4.006392  3.783745
182   1 0.0000  11.240245   1.335462  8.828738
183   1 0.0000   9.573441  -1.335468 13.873732
184   1 0.0000   7.906636  -4.006398 18.918725
185   1 0.0000   6.239832  -6.677329 23.963719
186   1 0.0000  10.293889   9.348249  3.783745
187   1 0.0000   8.627085   6.677319  8.828738
188   1 0.0000   6.960280   4.006389 13.873732
189   1 0.0000   5.293475   1.335459 18.918725
190   1 0.0000   3.626671  -1.335471 23.963719
191   1 0.0000   7.680729  14.690106  3.783745
192   1 0.0000   6.013924  12.019176  8.828738
193   1 0.0000   4.347119   9.348246 13.873732
194   1 0.0000   2.680315   6.677316 18.918725
195   1 0.0000   1.013510   4.006386 23.963719
196   1 0.0000   5.067568  20.031963  3.783745
197   1 0.0000   3.400763  17.361033  8.828738
198   1 0.0000   1.733959  14.690103 13.873732
199   1 0.0000   0.067154  12.019173 18.918725
200   1 0.0000  -1.599651   9.348243 23.963719
201   1 0.0000  21.466979  -1.335465  3.783745
202   1 0.0000  19.800175  -4.006395  8.828738
203   1 0.0000  18.133370  -6.677326 13.873732
204   1 0.0000  16.466565  -9.348256 18.918725
205   1 0.0000  14.799761 -12.019186 23.963719
206   1 0.0000  18.853819   4.006392  3.783745
207   1 0.0000  17.187014   1.335462  8.828738
208   1 0.0000  15.520209  -1.335468 13.873732
209   1 0.0000  13.853405  -4.006398 18.918725
210   1 0.0000  12.186600  -6.677329 23.963719
211   1 0.0000  16.240658   9.348249  3.783745
212   1 0.0000  14.573853   6.677319  8.828738
213   1 0.0000  12.907049   4.006389 13.873732
214   1 0.0000  11.240244   1.335459 18.918725
215   1 0.0000   9.573439  -1.335471 23.963719
216   1 0.0000  13.627497  14.690106  3.783745
217   1 0.0000  11.960693  12.019176  8.828738
218   1 0.0000  10.293888   9.348246 13.873732
219   1 0.0000   8.627083   6.677316 18.918725
220   1 0.0000   6.960279   4.006386 23.963719
221   1 0.0000  11.014336  20.031963  3.783745
222   1 0.0000   9.347532  17.361033  8.828738
223   1 0.0000   7.680727  14.690103 13.873732
224   1 0.0000   6.013923  12.019173 18.918725
225   1 0.0000   4.347118   9.348243 23.963719
226   1 0.0000  27.413748  -1.335465  3.783745
227   1 0.0000  25.746943  -4.006395  8.828738
228   1 0.0000  24.080138  -6.677326 13.873732
229   1 0.0000  22.413334  -9.348256 18.918725
230   1 0.0000  20.746529 -12.019186 23.963719
231   1 0.0000  24.800587   4.006392  3.783745
232   1 0.0000  23.133782   1.335462  8.828738
233   1 0.0000  21.466978  -1.335468 13.873732
234   1 0.0000  19.800173  -4.006398 18.918725
235   1 0.0000  18.133368  -6.677329 23.963719
236   1 0.0000  22.187426   9.348249  3.783745
237   1 0.0000  20.520622   6.677319  8.828738
238   1 0.0000  18.853817   4.006389 13.873732
239   1 0.0000  17.187012   1.335459 18.918725
240   1 0.0000  15.520208  -1.335471 23.963719
241   1 0.0000  19.574266  14.690106  3.783745
242   1 0.0000  17.907461  12.019176  8.828738
243   1 0.0000  16.240656   9.348246 13.873732
244   1 0.0000  14.573852   6.677316 18.918725
245   1 0.0000  12.907047   4.006386 23.963719
246   1 0.0000  16.961105  20.031963  3.783745
247   1 0.0000  15.294300  17.361033  8.828738
248   1 0.0000  13.627496  14.690103 13.873732
249   1 0.0000  11.960691  12.019173 18.918725
250   1 0.0000  10.293886   9.348243 23.963719
251   2 0.0000   2.320094   1.335464  1.261248
252   2 0.0000   0.653289  -1.335466  6.306242
253   2 0.0000  -1.013515  -4.006396 11.351235
254   2 0.0000  -2.680320  -6.677326 16.396229
255   2 0.0000  -4.347125  -9.348256 21.441222
256   2 0.0000  -0.293067   6.677321  1.261248
257   2 0.0000  -1.959871   4.006391  6.306242
258   2 0.0000  -3.626676   1.335461 11.351235
259   2 0.0000  -5.293481  -1.335469 16.396229
260   2 0.0000  -6.960285  -4.006399 21.441222
261   2 0.0000  -2.906228  12.019178  1.261248
262   2 0.0000  -4.573032   9.348248  6.306242
263   2 0.0000  -6.239837   6.677318 11.351235
264   2 0.0000  -7.906641   4.006388 16.396229
265   2 0.0000  -9.573446   1.335458 21.441222
266   2 0.0000  -5.519388  17.361036  1.261248
267   2 0.0000  -7.186193  14.690105  6.306242
268   2 0.0000  -8.852997  12.019175 11.351235
269   2 0.0000 -10.519802   9.348245 16.396229
270   2 0.0000 -12.186607   6.677315 21.441222
271   2 0.0000  -8.132549  22.702893  1.261248
272   2 0.0000  -9.799354  20.031963  6.306242
273   2 0.0000 -11.466158  17.361033 11.351235
274   2 0.0000 -13.132963  14.690102 16.396229
275   2 0.0000 -14.799767  12.019172 21.441222
276   2 0.0000   8.266862   1.335464  1.261248
277   2 0.0000   6.600058  -1.335466  6.306242
278   2 0.0000   4.933253  -4.006396 11.351235
279   2 0.0000   3.266448  -6.677326 16.396229
280   2 0.0000   1.599644  -9.348256 21.441222
281   2 0.0000   5.653702   6.677321  1.261248
282   2 0.0000   3.986897   4.006391  6.306242
283   2 0.0000   2.320092   1.335461 11.351235
284   2 0.0000   0.653288  -1.335469 16.396229
285   2 0.0000  -1.013517  -4.006399 21.441222
286   2 0.0000   3.040541  12.019178  1.261248
287   2 0.0000   1.373736   9.348248  6.306242
288   2 0.0000  -0.293068   6.677318 11.351235
289   2 0.0000  -1.959873   4.006388 16.396229
290   2 0.0000  -3.626678   1.335458 21.441222
291   2 0.0000   0.427380  17.361036  1.261248
292   2 0.0000  -1.239424  14.690105  6.306242
293   2 0.0000  -2.906229  12.019175 11.351235
294   2 0.0000  -4.573034   9.348245 16.396229
295   2 0.0000  -6.239838   6.677315 21.441222
296   2 0.0000  -2.185780  22.702893  1.261248
297   2 0.0000  -3.852585  20.031963  6.306242
298   2 0.0000  -5.519390  17.361033 11.351235
299   2 0.0000  -7.186194  14.690102 16.396229
300   2 0.0000  -8.852999  12.019172 21.441222
301   2 0.0000  14.213631   1.335464  1.261248
302   2 0.0000  12.546826  -1.335466  6.306242
303   2 0.0000  10.880022  -4.006396 11.351235
304   2 0.0000   9.213217  -6.677326 16.396229
305   2 0.0000   7.546412  -9.348256 21.441222
306   2 0.0000  11.600470   6.677321  1.261248
307   2 0.0000   9.933665   4.006391  6.306242
308   2 0.0000   8.266861   1.335461 11.351235
309   2 0.0000   6.600056  -1.335469 16.396229
310   2 0.0000   4.933252  -4.006399 21.441222
311   2 0.0000   8.987309  12.019178  1.261248
312   2 0.0000   7.320505   9.348248  6.306242
313   2 0.0000   5.653700   6.677318 11.351235
314   2 0.0000   3.986896   4.006388 16.396229
315   2 0.0000   2.320091   1.335458 21.441222
316   2 0.0000   6.374149  17.361036  1.261248
317   2 0.0000   4.707344  14.690105  6.306242
318   2 0.0000   3.040539  12.019175 11.351235
319   2 0.0000   1.373735   9.348245 16.396229
320   2 0.0000  -0.293070   6.677315 21.441222
321   2 0.0000   3.760988  22.702893  1.261248
322   2 0.0000   2.094183  20.031963  6.306242
323   2 0.0000   0.427379  17.361033 11.351235
324   2 0.0000  -1.239426  14.690102 16.396229
325   2 0.0000  -2.906231  12.019172 21.441222
326   2 0.0000  20.160399   1.335464  1.261248
327   2 0.0000  18.493595  -1.335466  6.306242
328   2 0.0000  16.826790  -4.006396 11.351235
329   2 0.0000  15.159985  -6.677326 16.396229
330   2 0.0000  13.493181  -9.348256 21.441222
331   2 0.0000  17.547239   6.677321  1.261248
332   2 0.0000  15.880434   4.006391  6.306242
333   2 0.0000  14.213629   1.335461 11.351235
334   2 0.0000  12.546825  -1.335469 16.396229
335   2 0.0000  10.880020  -4.006399 21.441222
336   2 0.0000  14.934078  12.019178  1.261248
337   2 0.0000  13.267273   9.348248  6.306242
338   2 0.0000  11.600469   6.677318 11.351235
339   2 0.0000   9.933664   4.006388 16.396229
340   2 0.0000   8.266859   1.335458 21.441222
341   2 0.0000  12.320917  17.361036  1.261248
342   2 0.0000  10.654113  14.690105  6.306242
343   2 0.0000   8.987308  12.019175 11.351235
344   2 0.0000   7.320503   9.348245 16.396229
345   2 0.0000   5.653699   6.677315 21.441222
346   2 0.0000   9.707756  22.702893  1.261248
347   2 0.0000   8.040952  20.031963  6.306242
348   2 0.0000   6.374147  17.361033 11.351235
349   2 0.0000   4.707343  14.690102 16.396229
350   2 0.0000   3.040538  12.019172 21.441222
351   2 0.0000  26.107168   1.335464  1.261248
352   2 0.0000  24.440363  -1.335466  6.306242
353   2 0.0000  22.773558  -4.006396 11.351235
354   2 0.0000  21.106754  -6.677326 16.396229
355   2 0.0000  19.439949  -9.348256 21.441222
356   2 0.0000  23.494007   6.677321  1.261248
357   2 0.0000  21.827202   4.006391  6.306242
358   2 0.0000  20.160398   1.335461 11.351235
359   2 0.0000  18.493593  -1.335469 16.396229
360   2 0.0000  16.826788  -4.006399 21.441222
361   2 0.0000  20.880846  12.019178  1.261248
362   2 0.0000  19.214042   9.348248  6.306242
363   2 0.0000  17.547237   6.677318 11.351235
364   2 0.0000  15.880432   4.006388 16.396229
365   2 0.0000  14.213628   1.335458 21.441222
366   2 0.0000  18.267686  17.361036  1.261248
367   2 0.0000  16.600881  14.690105  6.306242
368   2 0.0000  14.934076  12.019175 11.351235
369   2 0.0000  13.267272   9.348245 16.396229
370   2 0.0000  11.600467   6.677315 21.441222
371   2 0.0000  15.654525  22.702893  1.261248
372   2 0.0000  13.987720  20.031963  6.306242
373   2 0.0000  12.320916  17.361033 11.351235
374   2 0.0000  10.654111  14.690102 16.396229
375   2 0.0000   8.987306  12.019172 21.441222
376   2 0.0000  -0.653291   1.335463  3.783745
377   2 0.0000  -2.320095  -1.335467  8.828738
378   2 0.0000  -3.986900  -4.006397 13.873732
379   2 0.0000  -5.653705  -6.677327 18.918725
380   2 0.0000  -7.320509  -9.348257 23.963719
381   2 0.0000  -3.266451   6.677320  3.783745
382   2 0.0000  -4.933256   4.006390  8.828738
383   2 0.0000  -6.600061   1.335460 13.873732
384   2 0.0000  -8.266865  -1.335470 18.918725
385   2 0.0000  -9.933670  -4.006400 23.963719
386   2 0.0000  -5.879612  12.019178  3.783745
387   2 0.0000  -7.546417   9.348248  8.828738
388   2 0.0000  -9.213221   6.677317 13.873732
389   2 0.0000 -10.880026   4.006387 18.918725
390   2 0.0000 -12.546831   1.335457 23.963719
391   2 0.0000  -8.492773  17.361035  3.783745
392   2 0.0000 -10.159577  14.690105  8.828738
393   2 0.0000 -11.826382  12.019175 13.873732
394   2 0.0000 -13.493187   9.348245 18.918725
395   2 0.0000 -15.159991   6.677314 23.963719
396   2 0.0000 -11.105933  22.702892  3.783745
397   2 0.0000 -12.772738  20.031962  8.828738
398   2 0.0000 -14.439543  17.361032 13.873732
399   2 0.0000 -16.106347  14.690102 18.918725
400   2 0.0000 -17.773152  12.019172 23.963719
401   2 0.0000   5.293478   1.335463  3.783745
402   2 0.0000   3.626673  -1.335467  8.828738
403   2 0.0000   1.959868  -4.006397 13.873732
404   2 0.0000   0.293064  -6.677327 18.918725
405   2 0.0000  -1.373741  -9.348257 23.963719
406   2 0.0000   2.680317   6.677320  3.783745
407   2 0.0000   1.013512   4.006390  8.828738
408   2 0.0000  -0.653292   1.335460 13.873732
409   2 0.0000  -2.320097  -1.335470 18.918725
410   2 0.0000  -3.986902  -4.006400 23.963719
411   2 0.0000   0.067156  12.019178  3.783745
412   2 0.0000  -1.599648   9.348248  8.828738
413   2 0.0000  -3.266453   6.677317 13.873732
414   2 0.0000  -4.933258   4.006387 18.918725
415   2 0.0000  -6.600062   1.335457 23.963719
416   2 0.0000  -2.546004  17.361035  3.783745
417   2 0.0000  -4.212809  14.690105  8.828738
418   2 0.0000  -5.879614  12.019175 13.873732
419   2 0.0000  -7.546418   9.348245 18.918725
420   2 0.0000  -9.213223   6.677314 23.963719
421   2 0.0000  -5.159165  22.702892  3.783745
422   2 0.0000  -6.825970  20.031962  8.828738
423   2 0.0000  -8.492774  17.361032 13.873732
424   2 0.0000 -10.159579  14.690102 18.918725
425   2 0.0000 -11.826384  12.019172 23.963719
426   2 0.0000  11.240246   1.335463  3.783745
427   2 0.0000   9.573442  -1.335467  8.828738
428   2 0.0000   7.906637  -4.006397 13.873732
429   2 0.0000   6.239832  -6.677327 18.918725
430   2 0.0000   4.573028  -9.348257 23.963719
431   2 0.0000   8.627085   6.677320  3.783745
432   2 0.0000   6.960281   4.006390  8.828738
433   2 0.0000   5.293476   1.335460 13.873732
434   2 0.0000   3.626672  -1.335470 18.918725
435   2 0.0000   1.959867  -4.006400 23.963719
436   2 0.0000   6.013925  12.019178  3.783745
437   2 0.0000   4.347120   9.348248  8.828738
438   2 0.0000   2.680316   6.677317 13.873732
439   2 0.0000   1.013511   4.006387 18.918725
440   2 0.0000  -0.653294   1.335457 23.963719
441   2 0.0000   3.400764  17.361035  3.783745
442   2 0.0000   1.733959  14.690105  8.828738
443   2 0.0000   0.067155  12.019175 13.873732
444   2 0.0000  -1.599650   9.348245 18.918725
445   2 0.0000  -3.266454   6.677314 23.963719
446   2 0.0000   0.787603  22.702892  3.783745
447   2 0.0000  -0.879201  20.031962  8.828738
448   2 0.0000  -2.546006  17.361032 13.873732
449   2 0.0000  -4.212810  14.690102 18.918725
450   2 0.0000  -5.879615  12.019172 23.963719
451   2 0.0000  17.187015   1.335463  3.783745
452   2 0.0000  15.520210  -1.335467  8.828738
453   2 0.0000  13.853405  -4.006397 13.873732
454   2 0.0000  12.186601  -6.677327 18.918725
455   2 0.0000  10.519796  -9.348257 23.963719
456   2 0.0000  14.573854   6.677320  3.783745
457   2 0.0000  12.907049   4.006390  8.828738
458   2 0.0000  11.240245   1.335460 13.873732
459   2 0.0000   9.573440  -1.335470 18.918725
460   2 0.0000   7.906635  -4.006400 23.963719
461   2 0.0000  11.960693  12.019178  3.783745
462   2 0.0000  10.293889   9.348248  8.828738
463   2 0.0000   8.627084   6.677317 13.873732
464   2 0.0000   6.960279   4.006387 18.918725
465   2 0.0000   5.293475   1.335457 23.963719
466   2 0.0000   9.347533  17.361035  3.783745
467   2 0.0000   7.680728  14.690105  8.828738
468   2 0.0000   6.013923  12.019175 13.873732
469   2 0.0000   4.347119   9.348245 18.918725
470   2 0.0000   2.680314   6.677314 23.963719
471   2 0.0000   6.734372  22.702892  3.783745
472   2 0.0000   5.067567  20.031962  8.828738
473   2 0.0000   3.400763  17.361032 13.873732
474   2 0.0000   1.733958  14.690102 18.918725
475   2 0.0000   0.067153  12.019172 23.963719
476   2 0.0000  23.133783   1.335463  3.783745
477   2 0.0000  21.466978  -1.335467  8.828738
478   2 0.0000  19.800174  -4.006397 13.873732
479   2 0.0000  18.133369  -6.677327 18.918725
480   2 0.0000  16.466565  -9.348257 23.963719
481   2 0.0000  20.520622   6.677320  3.783745
482   2 0.0000  18.853818   4.006390  8.828738
483   2 0.0000  17.187013   1.335460 13.873732
484   2 0.0000  15.520209  -1.335470 18.918725
485   2 0.0000  13.853404  -4.006400 23.963719
486   2 0.0000  17.907462  12.019178  3.783745
487   2 0.0000  16.240657   9.348248  8.828738
488   2 0.0000  14.573852   6.677317 13.873732
489   2 0.0000  12.907048   4.006387 18.918725
490   2 0.0000  11.240243   1.335457 23.963719
491   2 0.0000  15.294301  17.361035  3.783745
492   2 0.0000  13.627496  14.690105  8.828738
493   2 0.0000  11.960692  12.019175 13.873732
494   2 0.0000  10.293887   9.348245 18.918725
495   2 0.0000   8.627082   6.677314 23.963719
496   2 0.0000  12.681140  22.702892  3.783745
497   2 0.0000  11.014336  20.031962  8.828738
498   2 0.0000   9.347531  17.361032 13.873732
499   2 0.0000   7.680726  14.690102 18.918725
500   2 0.0000   6.013922  12.019172 23.963719
501   3 0.0000   0.718683   1.774790  4.715082
502   3 0.0000  -0.948121  -0.896140  9.760075
503   3 0.0000  -2.614926  -3.567070 14.805069
504   3 0.0000  -4.281731  -6.238000 19.850062
505   3 0.0000  -5.948535  -8.908930 24.895055
506   3 0.0000  -1.894478   7.116648  4.715082
507   3 0.0000  -3.561282   4.445717  9.760075
508   3 0.0000  -5.228087   1.774787 14.805069
509   3 0.0000  -6.894891  -0.896143 19.850062
510   3 0.0000  -8.561696  -3.567073 24.895055
511   3 0.0000  -4.507638  12.458505  4.715082
512   3 0.0000  -6.174443   9.787575  9.760075
513   3 0.0000  -7.841247   7.116645 14.805069
514   3 0.0000  -9.508052   4.445714 19.850062
515   3 0.0000 -11.174857   1.774784 24.895055
516   3 0.0000  -7.120799  17.800362  4.715082
517   3 0.0000  -8.787604  15.129432  9.760075
518   3 0.0000 -10.454408  12.458502 14.805069
519   3 0.0000 -12.121213   9.787572 19.850062
520   3 0.0000 -13.788017   7.116642 24.895055
521   3 0.0000  -9.733960  23.142219  4.715082
522   3 0.0000 -11.400764  20.471289  9.760075
523   3 0.0000 -13.067569  17.800359 14.805069
524   3 0.0000 -14.734373  15.129429 19.850062
525   3 0.0000 -16.401178  12.458499 24.895055
526   3 0.0000   6.665452   1.774790  4.715082
527   3 0.0000   4.998647  -0.896140  9.760075
528   3 0.0000   3.331842  -3.567070 14.805069
529   3 0.0000   1.665038  -6.238000 19.850062
530   3 0.0000  -0.001767  -8.908930 24.895055
531   3 0.0000   4.052291   7.116648  4.715082
532   3 0.0000   2.385486   4.445717  9.760075
533   3 0.0000   0.718682   1.774787 14.805069
534   3 0.0000  -0.948123  -0.896143 19.850062
535   3 0.0000  -2.614928  -3.567073 24.895055
536   3 0.0000   1.439130  12.458505  4.715082
537   3 0.0000  -0.227674   9.787575  9.760075
538   3 0.0000  -1.894479   7.116645 14.805069
539   3 0.0000  -3.561284   4.445714 19.850062
540   3 0.0000  -5.228088   1.774784 24.895055
541   3 0.0000  -1.174030  17.800362  4.715082
542   3 0.0000  -2.840835  15.129432  9.760075
543   3 0.0000  -4.507640  12.458502 14.805069
544   3 0.0000  -6.174444   9.787572 19.850062
545   3 0.0000  -7.841249   7.116642 24.895055
546   3 0.0000  -3.787191  23.142219  4.715082
547   3 0.0000  -5.453996  20.471289  9.760075
548   3 0.0000  -7.120800  17.800359 14.805069
549   3 0.0000  -8.787605  15.129429 19.850062
550   3 0.0000 -10.454410  12.458499 24.895055
551   3 0.0000  12.612220   1.774790  4.715082
552   3 0.0000  10.945415  -0.896140  9.760075
553   3 0.0000   9.278611  -3.567070 14.805069
554   3 0.0000   7.611806  -6.238000 19.850062
555   3 0.0000   5.945002  -8.908930 24.895055
556   3 0.0000   9.999059   7.116648  4.715082
557   3 0.0000   8.332255   4.445717  9.760075
558   3 0.0000   6.665450   1.774787 14.805069
559   3 0.0000   4.998645  -0.896143 19.850062
560   3 0.0000   3.331841  -3.567073 24.895055
561   3 0.0000   7.385899  12.458505  4.715082
562   3 0.0000   5.719094   9.787575  9.760075
563   3 0.0000   4.052289   7.116645 14.805069
564   3 0.0000   2.385485   4.445714 19.850062
565   3 0.0000   0.718680   1.774784 24.895055
566   3 0.0000   4.772738  17.800362  4.715082
567   3 0.0000   3.105933  15.129432  9.760075
568   3 0.0000   1.439129  12.458502 14.805069
569   3 0.0000  -0.227676   9.787572 19.850062
570   3 0.0000  -1.894481   7.116642 24.895055
571   3 0.0000   2.159577  23.142219  4.715082
572   3 0.0000   0.492773  20.471289  9.760075
573   3 0.0000  -1.174032  17.800359 14.805069
574   3 0.0000  -2.840837  15.129429 19.850062
575   3 0.0000  -4.507641  12.458499 24.895055
576   3 0.0000  18.558989   1.774790  4.715082
577   3 0.0000  16.892184  -0.896140  9.760075
578   3 0.0000  15.225379  -3.567070 14.805069
579   3 0.0000  13.558575  -6.238000 19.850062
580   3 0.0000  11.891770  -8.908930 24.895055
581   3 0.0000  15.945828   7.116648  4.715082
582   3 0.0000  14.279023   4.445717  9.760075
583   3 0.0000  12.612219   1.774787 14.805069
584   3 0.0000  10.945414  -0.896143 19.850062
585   3 0.0000   9.278609  -3.567073 24.895055
586   3 0.0000  13.332667  12.458505  4.715082
587   3 0.0000  11.665863   9.787575  9.760075
588   3 0.0000   9.999058   7.116645 14.805069
589   3 0.0000   8.332253   4.445714 19.850062
590   3 0.0000   6.665449   1.774784 24.895055
591   3 0.0000  10.719506  17.800362  4.715082
592   3 0.0000   9.052702  15.129432  9.760075
593   3 0.0000   7.385897  12.458502 14.805069
594   3 0.0000   5.719093   9.787572 19.850062
595   3 0.0000   4.052288   7.116642 24.895055
596   3 0.0000   8.106346  23.142219  4.715082
597   3 0.0000   6.439541  20.471289  9.760075
598   3 0.0000   4.772737  17.800359 14.805069
599   3 0.0000   3.105932  15.129429 19.850062
600   3 0.0000   1.439127  12.458499 24.895055
601   3 0.0000  24.505757   1.774790  4.715082
602   3 0.0000  22.838952  -0.896140  9.760075
603   3 0.0000  21.172148  -3.567070 14.805069
604   3 0.0000  19.505343  -6.238000 19.850062
605   3 0.0000  17.838538  -8.908930 24.895055
606   3 0.0000  21.892596   7.116648  4.715082
607   3 0.0000  20.225792   4.445717  9.760075
608   3 0.0000  18.558987   1.774787 14.805069
609   3 0.0000  16.892182  -0.896143 19.850062
610   3 0.0000  15.225378  -3.567073 24.895055
611   3 0.0000  19.279436  12.458505  4.715082
612   3 0.0000  17.612631   9.787575  9.760075
613   3 0.0000  15.945826   7.116645 14.805069
614   3 0.0000  14.279022   4.445714 19.850062
615   3 0.0000  12.612217   1.774784 24.895055
616   3 0.0000  16.666275  17.800362  4.715082
617   3 0.0000  14.999470  15.129432  9.760075
618   3 0.0000  13.332666  12.458502 14.805069
619   3 0.0000  11.665861   9.787572 19.850062
620   3 0.0000   9.999056   7.116642 24.895055
621   3 0.0000  14.053114  23.142219  4.715082
622   3 0.0000  12.386310  20.471289  9.760075
623   3 0.0000  10.719505  17.800359 14.805069
624   3 0.0000   9.052700  15.129429 19.850062
625   3 0.0000   7.385896  12.458499 24.895055
626   3 0.0000   2.111852   2.760931  2.192585
627   3 0.0000   0.445048   0.090001  7.237579
628   3 0.0000  -1.221757  -2.580929 12.282572
629   3 0.0000  -2.888562  -5.251860 17.327565
630   3 0.0000  -4.555366  -7.922790 22.372559
631   3 0.0000  -0.501308   8.102788  2.192585
632   3 0.0000  -2.168113   5.431858  7.237579
633   3 0.0000  -3.834918   2.760928 12.282572
634   3 0.0000  -5.501722   0.089998 17.327565
635   3 0.0000  -7.168527  -2.580932 22.372559
636   3 0.0000  -3.114469  13.444645  2.192585
637   3 0.0000  -4.781274  10.773715  7.237579
638   3 0.0000  -6.448078   8.102785 12.282572
639   3 0.0000  -8.114883   5.431855 17.327565
640   3 0.0000  -9.781688   2.760925 22.372559
641   3 0.0000  -5.727630  18.786502  2.192585
642   3 0.0000  -7.394434  16.115572  7.237579
643   3 0.0000  -9.061239  13.444642 12.282572
644   3 0.0000 -10.728044  10.773712 17.327565
645   3 0.0000 -12.394848   8.102782 22.372559
646   3 0.0000  -8.340790  24.128360  2.192585
647   3 0.0000 -10.007595  21.457429  7.237579
648   3 0.0000 -11.674400  18.786499 12.282572
649   3 0.0000 -13.341204  16.115569 17.327565
650   3 0.0000 -15.008009  13.444639 22.372559
651   3 0.0000   8.058621   2.760931  2.192585
652   3 0.0000   6.391816   0.090001  7.237579
653   3 0.0000   4.725011  -2.580929 12.282572
654   3 0.0000   3.058207  -5.251860 17.327565
655   3 0.0000   1.391402  -7.922790 22.372559
656   3 0.0000   5.445460   8.102788  2.192585
657   3 0.0000   3.778655   5.431858  7.237579
658   3 0.0000   2.111851   2.760928 12.282572
659   3 0.0000   0.445046   0.089998 17.327565
660   3 0.0000  -1.221758  -2.580932 22.372559
661   3 0.0000   2.832299  13.444645  2.192585
662   3 0.0000   1.165495  10.773715  7.237579
663   3 0.0000  -0.501310   8.102785 12.282572
664   3 0.0000  -2.168115   5.431855 17.327565
665   3 0.0000  -3.834919   2.760925 22.372559
666   3 0.0000   0.219139  18.786502  2.192585
667   3 0.0000  -1.447666  16.115572  7.237579
668   3 0.0000  -3.114471  13.444642 12.282572
669   3 0.0000  -4.781275  10.773712 17.327565
670   3 0.0000  -6.448080   8.102782 22.372559
671   3 0.0000  -2.394022  24.128360  2.192585
672   3 0.0000  -4.060827  21.457429  7.237579
673   3 0.0000  -5.727631  18.786499 12.282572
674   3 0.0000  -7.394436  16.115569 17.327565
675   3 0.0000  -9.061241  13.444639 22.372559
676   3 0.0000  14.005389   2.760931  2.192585
677   3 0.0000  12.338585   0.090001  7.237579
678   3 0.0000  10.671780  -2.580929 12.282572
679   3 0.0000   9.004975  -5.251860 17.327565
680   3 0.0000   7.338171  -7.922790 22.372559
681   3 0.0000  11.392229   8.102788  2.192585
682   3 0.0000   9.725424   5.431858  7.237579
683   3 0.0000   8.058619   2.760928 12.282572
684   3 0.0000   6.391815   0.089998 17.327565
685   3 0.0000   4.725010  -2.580932 22.372559
686   3 0.0000   8.779068  13.444645  2.192585
687   3 0.0000   7.112263  10.773715  7.237579
688   3 0.0000   5.445459   8.102785 12.282572
689   3 0.0000   3.778654   5.431855 17.327565
690   3 0.0000   2.111849   2.760925 22.372559
691   3 0.0000   6.165907  18.786502  2.192585
692   3 0.0000   4.499103  16.115572  7.237579
693   3 0.0000   2.832298  13.444642 12.282572
694   3 0.0000   1.165493  10.773712 17.327565
695   3 0.0000  -0.501311   8.102782 22.372559
696   3 0.0000   3.552746  24.128360  2.192585
697   3 0.0000   1.885942  21.457429  7.237579
698   3 0.0000   0.219137  18.786499 12.282572
699   3 0.0000  -1.447667  16.115569 17.327565
700   3 0.0000  -3.114472  13.444639 22.372559
701   3 0.0000  19.952158   2.760931  2.192585
702   3 0.0000  18.285353   0.090001  7.237579
703   3 0.0000  16.618548  -2.580929 12.282572
704   3 0.0000  14.951744  -5.251860 17.327565
705   3 0.0000  13.284939  -7.922790 22.372559
706   3 0.0000  17.338997   8.102788  2.192585
707   3 0.0000  15.672192   5.431858  7.237579
708   3 0.0000  14.005388   2.760928 12.282572
709   3 0.0000  12.338583   0.089998 17.327565
710   3 0.0000  10.671778  -2.580932 22.372559
711   3 0.0000  14.725836  13.444645  2.192585
712   3 0.0000  13.059032  10.773715  7.237579
713   3 0.0000  11.392227   8.102785 12.282572
714   3 0.0000   9.725422   5.431855 17.327565
715   3 0.0000   8.058618   2.760925 22.372559
716   3 0.0000  12.112676  18.786502  2.192585
717   3 0.0000  10.445871  16.115572  7.237579
718   3 0.0000   8.779066  13.444642 12.282572
719   3 0.0000   7.112262  10.773712 17.327565
720   3 0.0000   5.445457   8.102782 22.372559
721   3 0.0000   9.499515  24.128360  2.192585
722   3 0.0000   7.832710  21.457429  7.237579
723   3 0.0000   6.165906  18.786499 12.282572
724   3 0.0000   4.499101  16.115569 17.327565
725   3 0.0000   2.832296  13.444639 22.372559
726   3 0.0000  25.898926   2.760931  2.192585
727   3 0.0000  24.232121   0.090001  7.237579
728   3 0.0000  22.565317  -2.580929 12.282572
729   3 0.0000  20.898512  -5.251860 17.327565
730   3 0.0000  19.231708  -7.922790 22.372559
731   3 0.0000  23.285765   8.102788  2.192585
732   3 0.0000  21.618961   5.431858  7.237579
733   3 0.0000  19.952156   2.760928 12.282572
734   3 0.0000  18.285352   0.089998 17.327565
735   3 0.0000  16.618547  -2.580932 22.372559
736   3 0.0000  20.672605  13.444645  2.192585
737   3 0.0000  19.005800  10.773715  7.237579
738   3 0.0000  17.338995   8.102785 12.282572
739   3 0.0000  15.672191   5.431855 17.327565
740   3 0.0000  14.005386   2.760925 22.372559
741   3 0.0000  18.059444  18.786502  2.192585
742   3 0.0000  16.392639  16.115572  7.237579
743   3 0.0000  14.725835  13.444642 12.282572
744   3 0.0000  13.059030  10.773712 17.327565
745   3 0.0000  11.392226   8.102782 22.372559
746   3 0.0000  15.446283  24.128360  2.192585
747   3 0.0000  13.779479  21.457429  7.237579
748   3 0.0000  12.112674  18.786499 12.282572
749   3 0.0000  10.445869  16.115569 17.327565
750   3 0.0000   8.779065  13.444639 22.372559
751   3 0.0000   3.692065   1.774797  0.329912
752   3 0.0000   2.025261  -0.896133  5.374905
753   3 0.0000   0.358456  -3.567063 10.419898
754   3 0.0000  -1.308348  -6.237993 15.464892
755   3 0.0000  -2.975153  -8.908923 20.509885
756   3 0.0000   1.078905   7.116654  0.329912
757   3 0.0000  -0.587900   4.445724  5.374905
758   3 0.0000  -2.254705   1.774794 10.419898
759   3 0.0000  -3.921509  -0.896136 15.464892
760   3 0.0000  -5.588314  -3.567066 20.509885
761   3 0.0000  -1.534256  12.458511  0.329912
762   3 0.0000  -3.201061   9.787581  5.374905
763   3 0.0000  -4.867865   7.116651 10.419898
764   3 0.0000  -6.534670   4.445721 15.464892
765   3 0.0000  -8.201475   1.774791 20.509885
766   3 0.0000  -4.147417  17.800369  0.329912
767   3 0.0000  -5.814221  15.129439  5.374905
768   3 0.0000  -7.481026  12.458508 10.419898
769   3 0.0000  -9.147831   9.787578 15.464892
770   3 0.0000 -10.814635   7.116648 20.509885
771   3 0.0000  -6.760577  23.142226  0.329912
772   3 0.0000  -8.427382  20.471296  5.374905
773   3 0.0000 -10.094187  17.800366 10.419898
774   3 0.0000 -11.760991  15.129436 15.464892
775   3 0.0000 -13.427796  12.458506 20.509885
776   3 0.0000   9.638834   1.774797  0.329912
777   3 0.0000   7.972029  -0.896133  5.374905
778   3 0.0000   6.305225  -3.567063 10.419898
779   3 0.0000   4.638420  -6.237993 15.464892
780   3 0.0000   2.971615  -8.908923 20.509885
781   3 0.0000   7.025673   7.116654  0.329912
782   3 0.0000   5.358869   4.445724  5.374905
783   3 0.0000   3.692064   1.774794 10.419898
784   3 0.0000   2.025259  -0.896136 15.464892
785   3 0.0000   0.358455  -3.567066 20.509885
786   3 0.0000   4.412512  12.458511  0.329912
787   3 0.0000   2.745708   9.787581  5.374905
788   3 0.0000   1.078903   7.116651 10.419898
789   3 0.0000  -0.587901   4.445721 15.464892
790   3 0.0000  -2.254706   1.774791 20.509885
791   3 0.0000   1.799352  17.800369  0.329912
792   3 0.0000   0.132547  15.129439  5.374905
793   3 0.0000  -1.534257  12.458508 10.419898
794   3 0.0000  -3.201062   9.787578 15.464892
795   3 0.0000  -4.867867   7.116648 20.509885
796   3 0.0000  -0.813809  23.142226  0.329912
797   3 0.0000  -2.480614  20.471296  5.374905
798   3 0.0000  -4.147418  17.800366 10.419898
799   3 0.0000  -5.814223  15.129436 15.464892
800   3 0.0000  -7.481027  12.458506 20.509885
801   3 0.0000  15.585602   1.774797  0.329912
802   3 0.0000  13.918798  -0.896133  5.374905
803   3 0.0000  12.251993  -3.567063 10.419898
804   3 0.0000  10.585188  -6.237993 15.464892
805   3 0.0000   8.918384  -8.908923 20.509885
806   3 0.0000  12.972442   7.116654  0.329912
807   3 0.0000  11.305637   4.445724  5.374905
808   3 0.0000   9.638832   1.774794 10.419898
809   3 0.0000   7.972028  -0.896136 15.464892
810   3 0.0000   6.305223  -3.567066 20.509885
811   3 0.0000  10.359281  12.458511  0.329912
812   3 0.0000   8.692476   9.787581  5.374905
813   3 0.0000   7.025672   7.116651 10.419898
814   3 0.0000   5.358867   4.445721 15.464892
815   3 0.0000   3.692062   1.774791 20.509885
816   3 0.0000   7.746120  17.800369  0.329912
817   3 0.0000   6.079316  15.129439  5.374905
818   3 0.0000   4.412511  12.458508 10.419898
819   3 0.0000   2.745706   9.787578 15.464892
820   3 0.0000   1.078902   7.116648 20.509885
821   3 0.0000   5.132960  23.142226  0.329912
822   3 0.0000   3.466155  20.471296  5.374905
823   3 0.0000   1.799350  17.800366 10.419898
824   3 0.0000   0.132546  15.129436 15.464892
825   3 0.0000  -1.534259  12.458506 20.509885
826   3 0.0000  21.532371   1.774797  0.329912
827   3 0.0000  19.865566  -0.896133  5.374905
828   3 0.0000  18.198762  -3.567063 10.419898
829   3 0.0000  16.531957  -6.237993 15.464892
830   3 0.0000  14.865152  -8.908923 20.509885
831   3 0.0000  18.919210   7.116654  0.329912
832   3 0.0000  17.252405   4.445724  5.374905
833   3 0.0000  15.585601   1.774794 10.419898
834   3 0.0000  13.918796  -0.896136 15.464892
835   3 0.0000  12.251992  -3.567066 20.509885
836   3 0.0000  16.306049  12.458511  0.329912
837   3 0.0000  14.639245   9.787581  5.374905
838   3 0.0000  12.972440   7.116651 10.419898
839   3 0.0000  11.305636   4.445721 15.464892
840   3 0.0000   9.638831   1.774791 20.509885
841   3 0.0000  13.692889  17.800369  0.329912
842   3 0.0000  12.026084  15.129439  5.374905
843   3 0.0000  10.359279  12.458508 10.419898
844   3 0.0000   8.692475   9.787578 15.464892
845   3 0.0000   7.025670   7.116648 20.509885
846   3 0.0000  11.079728  23.142226  0.329912
847   3 0.0000   9.412923  20.471296  5.374905
848   3 0.0000   7.746119  17.800366 10.419898
849   3 0.0000   6.079314  15.129436 15.464892
850   3 0.0000   4.412509  12.458506 20.509885
851   3 0.0000  27.479139   1.774797  0.329912
852   3 0.0000  25.812335  -0.896133  5.374905
853   3 0.0000  24.145530  -3.567063 10.419898
854   3 0.0000  22.478725  -6.237993 15.464892
855   3 0.0000  20.811921  -8.908923 20.509885
856   3 0.0000  24.865979   7.116654  0.329912
857   3 0.0000  23.199174   4.445724  5.374905
858   3 0.0000  21.532369   1.774794 10.419898
859   3 0.0000  19.865565  -0.896136 15.464892
860   3 0.0000  18.198760  -3.567066 20.509885
861   3 0.0000  22.252818  12.458511  0.329912
862   3 0.0000  20.586013   9.787581  5.374905
863   3 0.0000  18.919209   7.116651 10.419898
864   3 0.0000  17.252404   4.445721 15.464892
865   3 0.0000  15.585599   1.774791 20.509885
866   3 0.0000  19.639657  17.800369  0.329912
867   3 0.0000  17.972853  15.129439  5.374905
868   3 0.0000  16.306048  12.458508 10.419898
869   3 0.0000  14.639243   9.787578 15.464892
870   3 0.0000  12.972439   7.116648 20.509885
871   3 0.0000  17.026496  23.142226  0.329912
872   3 0.0000  15.359692  20.471296  5.374905
873   3 0.0000  13.692887  17.800366 10.419898
874   3 0.0000  12.026083  15.129436 15.464892
875   3 0.0000  10.359278  12.458506 20.509885
876   3 0.0000  -0.861526   2.760931  2.852408
877   3 0.0000  -2.528331   0.090000  7.897402
878   3 0.0000  -4.195135  -2.580930 12.942395
879   3 0.0000  -5.861940  -5.251860 17.987388
880   3 0.0000  -7.528745  -7.922790 23.032382
881   3 0.0000  -3.474687   8.102788  2.852408
882   3 0.0000  -5.141491   5.431858  7.897402
883   3 0.0000  -6.808296   2.760928 12.942395
884   3 0.0000  -8.475101   0.089997 17.987388
885   3 0.0000 -10.141905  -2.580933 23.032382
886   3 0.0000  -6.087847  13.444645  2.852408
887   3 0.0000  -7.754652  10.773715  7.897402
888   3 0.0000  -9.421457   8.102785 12.942395
889   3 0.0000 -11.088261   5.431855 17.987388
890   3 0.0000 -12.755066   2.760925 23.032382
891   3 0.0000  -8.701008  18.786502  2.852408
892   3 0.0000 -10.367813  16.115572  7.897402
893   3 0.0000 -12.034617  13.444642 12.942395
894   3 0.0000 -13.701422  10.773712 17.987388
895   3 0.0000 -15.368227   8.102782 23.032382
896   3 0.0000 -11.314169  24.128359  2.852408
897   3 0.0000 -12.980973  21.457429  7.897402
898   3 0.0000 -14.647778  18.786499 12.942395
899   3 0.0000 -16.314583  16.115569 17.987388
900   3 0.0000 -17.981387  13.444639 23.032382
901   3 0.0000   5.085242   2.760931  2.852408
902   3 0.0000   3.418438   0.090000  7.897402
903   3 0.0000   1.751633  -2.580930 12.942395
904   3 0.0000   0.084829  -5.251860 17.987388
905   3 0.0000  -1.581976  -7.922790 23.032382
906   3 0.0000   2.472082   8.102788  2.852408
907   3 0.0000   0.805277   5.431858  7.897402
908   3 0.0000  -0.861528   2.760928 12.942395
909   3 0.0000  -2.528332   0.089997 17.987388
910   3 0.0000  -4.195137  -2.580933 23.032382
911   3 0.0000  -0.141079  13.444645  2.852408
912   3 0.0000  -1.807884  10.773715  7.897402
913   3 0.0000  -3.474688   8.102785 12.942395
914   3 0.0000  -5.141493   5.431855 17.987388
915   3 0.0000  -6.808297   2.760925 23.032382
916   3 0.0000  -2.754240  18.786502  2.852408
917   3 0.0000  -4.421044  16.115572  7.897402
918   3 0.0000  -6.087849  13.444642 12.942395
919   3 0.0000  -7.754654  10.773712 17.987388
920   3 0.0000  -9.421458   8.102782 23.032382
921   3 0.0000  -5.367400  24.128359  2.852408
922   3 0.0000  -7.034205  21.457429  7.897402
923   3 0.0000  -8.701010  18.786499 12.942395
924   3 0.0000 -10.367814  16.115569 17.987388
925   3 0.0000 -12.034619  13.444639 23.032382
926   3 0.0000  11.032011   2.760931  2.852408
927   3 0.0000   9.365206   0.090000  7.897402
928   3 0.0000   7.698402  -2.580930 12.942395
929   3 0.0000   6.031597  -5.251860 17.987388
930   3 0.0000   4.364792  -7.922790 23.032382
931   3 0.0000   8.418850   8.102788  2.852408
932   3 0.0000   6.752046   5.431858  7.897402
933   3 0.0000   5.085241   2.760928 12.942395
934   3 0.0000   3.418436   0.089997 17.987388
935   3 0.0000   1.751632  -2.580933 23.032382
936   3 0.0000   5.805690  13.444645  2.852408
937   3 0.0000   4.138885  10.773715  7.897402
938   3 0.0000   2.472080   8.102785 12.942395
939   3 0.0000   0.805276   5.431855 17.987388
940   3 0.0000  -0.861529   2.760925 23.032382
941   3 0.0000   3.192529  18.786502  2.852408
942   3 0.0000   1.525724  16.115572  7.897402
943   3 0.0000  -0.141080  13.444642 12.942395
944   3 0.0000  -1.807885  10.773712 17.987388
945   3 0.0000  -3.474690   8.102782 23.032382
946   3 0.0000   0.579368  24.128359  2.852408
947   3 0.0000  -1.087436  21.457429  7.897402
948   3 0.0000  -2.754241  18.786499 12.942395
949   3 0.0000  -4.421046  16.115569 17.987388
950   3 0.0000  -6.087850  13.444639 23.032382
951   3 0.0000  16.978779   2.760931  2.852408
952   3 0.0000  15.311975   0.090000  7.897402
953   3 0.0000  13.645170  -2.580930 12.942395
954   3 0.0000  11.978365  -5.251860 17.987388
955   3 0.0000  10.311561  -7.922790 23.032382
956   3 0.0000  14.365619   8.102788  2.852408
957   3 0.0000  12.698814   5.431858  7.897402
958   3 0.0000  11.032009   2.760928 12.942395
959   3 0.0000   9.365205   0.089997 17.987388
960   3 0.0000   7.698400  -2.580933 23.032382
961   3 0.0000  11.752458  13.444645  2.852408
962   3 0.0000  10.085653  10.773715  7.897402
963   3 0.0000   8.418849   8.102785 12.942395
964   3 0.0000   6.752044   5.431855 17.987388
965   3 0.0000   5.085239   2.760925 23.032382
966   3 0.0000   9.139297  18.786502  2.852408
967   3 0.0000   7.472493  16.115572  7.897402
968   3 0.0000   5.805688  13.444642 12.942395
969   3 0.0000   4.138883  10.773712 17.987388
970   3 0.0000   2.472079   8.102782 23.032382
971   3 0.0000   6.526137  24.128359  2.852408
972   3 0.0000   4.859332  21.457429  7.897402
973   3 0.0000   3.192527  18.786499 12.942395
974   3 0.0000   1.525723  16.115569 17.987388
975   3 0.0000  -0.141082  13.444639 23.032382
976   3 0.0000  22.925548   2.760931  2.852408
977   3 0.0000  21.258743   0.090000  7.897402
978   3 0.0000  19.591939  -2.580930 12.942395
979   3 0.0000  17.925134  -5.251860 17.987388
980   3 0.0000  16.258329  -7.922790 23.032382
981   3 0.0000  20.312387   8.102788  2.852408
982   3 0.0000  18.645582   5.431858  7.897402
983   3 0.0000  16.978778   2.760928 12.942395
984   3 0.0000  15.311973   0.089997 17.987388
985   3 0.0000  13.645169  -2.580933 23.032382
986   3 0.0000  17.699226  13.444645  2.852408
987   3 0.0000  16.032422  10.773715  7.897402
988   3 0.0000  14.365617   8.102785 12.942395
989   3 0.0000  12.698813   5.431855 17.987388
990   3 0.0000  11.032008   2.760925 23.032382
991   3 0.0000  15.086066  18.786502  2.852408
992   3 0.0000  13.419261  16.115572  7.897402
993   3 0.0000  11.752456  13.444642 12.942395
994   3 0.0000  10.085652  10.773712 17.987388
995   3 0.0000   8.418847   8.102782 23.032382
996   3 0.0000  12.472905  24.128359  2.852408
997   3 0.0000  10.806100  21.457429  7.897402
998   3 0.0000   9.139296  18.786499 12.942395
999   3 0.0000   7.472491  16.115569 17.987388
1000  3 0.0000   5.805687  13.444639 23.032382
1001  3 0.0000  -2.025262   0.896130  4.715082
1002  3 0.0000  -3.692067  -1.774800  9.760075
1003  3 0.0000  -5.358872  -4.445730 14.805069
1004  3 0.0000  -7.025676  -7.116660 19.850062
1005  3 0.0000  -8.692481  -9.787590 24.895055
1006  3 0.0000  -4.638423   6.237987  4.715082
1007  3 0.0000  -6.305228   3.567057  9.760075
1008  3 0.0000  -7.972032   0.896127 14.805069
1009  3 0.0000  -9.638837  -1.774803 19.850062
1010  3 0.0000 -11.305642  -4.445733 24.895055
1011  3 0.0000  -7.251584  11.579845  4.715082
1012  3 0.0000  -8.918388   8.908914  9.760075
1013  3 0.0000 -10.585193   6.237984 14.805069
1014  3 0.0000 -12.251998   3.567054 19.850062
1015  3 0.0000 -13.918802   0.896124 24.895055
1016  3 0.0000  -9.864744  16.921702  4.715082
1017  3 0.0000 -11.531549  14.250772  9.760075
1018  3 0.0000 -13.198354  11.579842 14.805069
1019  3 0.0000 -14.865158   8.908911 19.850062
1020  3 0.0000 -16.531963   6.237981 24.895055
1021  3 0.0000 -12.477905  22.263559  4.715082
1022  3 0.0000 -14.144710  19.592629  9.760075
1023  3 0.0000 -15.811514  16.921699 14.805069
1024  3 0.0000 -17.478319  14.250769 19.850062
1025  3 0.0000 -19.145124  11.579839 24.895055
1026  3 0.0000   3.921506   0.896130  4.715082
1027  3 0.0000   2.254702  -1.774800  9.760075
1028  3 0.0000   0.587897  -4.445730 14.805069
1029  3 0.0000  -1.078908  -7.116660 19.850062
1030  3 0.0000  -2.745712  -9.787590 24.895055
1031  3 0.0000   1.308345   6.237987  4.715082
1032  3 0.0000  -0.358459   3.567057  9.760075
1033  3 0.0000  -2.025264   0.896127 14.805069
1034  3 0.0000  -3.692068  -1.774803 19.850062
1035  3 0.0000  -5.358873  -4.445733 24.895055
1036  3 0.0000  -1.304815  11.579845  4.715082
1037  3 0.0000  -2.971620   8.908914  9.760075
1038  3 0.0000  -4.638424   6.237984 14.805069
1039  3 0.0000  -6.305229   3.567054 19.850062
1040  3 0.0000  -7.972034   0.896124 24.895055
1041  3 0.0000  -3.917976  16.921702  4.715082
1042  3 0.0000  -5.584781  14.250772  9.760075
1043  3 0.0000  -7.251585  11.579842 14.805069
1044  3 0.0000  -8.918390   8.908911 19.850062
1045  3 0.0000 -10.585194   6.237981 24.895055
1046  3 0.0000  -6.531137  22.263559  4.715082
1047  3 0.0000  -8.197941  19.592629  9.760075
1048  3 0.0000  -9.864746  16.921699 14.805069
1049  3 0.0000 -11.531550  14.250769 19.850062
1050  3 0.0000 -13.198355  11.579839 24.895055
1051  3 0.0000   9.868275   0.896130  4.715082
1052  3 0.0000   8.201470  -1.774800  9.760075
1053  3 0.0000   6.534665  -4.445730 14.805069
1054  3 0.0000   4.867861  -7.116660 19.850062
1055  3 0.0000   3.201056  -9.787590 24.895055
1056  3 0.0000   7.255114   6.237987  4.715082
1057  3 0.0000   5.588309   3.567057  9.760075
1058  3 0.0000   3.921505   0.896127 14.805069
1059  3 0.0000   2.254700  -1.774803 19.850062
1060  3 0.0000   0.587895  -4.445733 24.895055
1061  3 0.0000   4.641953  11.579845  4.715082
1062  3 0.0000   2.975149   8.908914  9.760075
1063  3 0.0000   1.308344   6.237984 14.805069
1064  3 0.0000  -0.358461   3.567054 19.850062
1065  3 0.0000  -2.025265   0.896124 24.895055
1066  3 0.0000   2.028793  16.921702  4.715082
1067  3 0.0000   0.361988  14.250772  9.760075
1068  3 0.0000  -1.304817  11.579842 14.805069
1069  3 0.0000  -2.971621   8.908911 19.850062
1070  3 0.0000  -4.638426   6.237981 24.895055
1071  3 0.0000  -0.584368  22.263559  4.715082
1072  3 0.0000  -2.251173  19.592629  9.760075
1073  3 0.0000  -3.917977  16.921699 14.805069
1074  3 0.0000  -5.584782  14.250769 19.850062
1075  3 0.0000  -7.251587  11.579839 24.895055
1076  3 0.0000  15.815043   0.896130  4.715082
1077  3 0.0000  14.148238  -1.774800  9.760075
1078  3 0.0000  12.481434  -4.445730 14.805069
1079  3 0.0000  10.814629  -7.116660 19.850062
1080  3 0.0000   9.147825  -9.787590 24.895055
1081  3 0.0000  13.201882   6.237987  4.715082
1082  3 0.0000  11.535078   3.567057  9.760075
1083  3 0.0000   9.868273   0.896127 14.805069
1084  3 0.0000   8.201469  -1.774803 19.850062
1085  3 0.0000   6.534664  -4.445733 24.895055
1086  3 0.0000  10.588722  11.579845  4.715082
1087  3 0.0000   8.921917   8.908914  9.760075
1088  3 0.0000   7.255112   6.237984 14.805069
1089  3 0.0000   5.588308   3.567054 19.850062
1090  3 0.0000   3.921503   0.896124 24.895055
1091  3 0.0000   7.975561  16.921702  4.715082
1092  3 0.0000   6.308756  14.250772  9.760075
1093  3 0.0000   4.641952  11.579842 14.805069
1094  3 0.0000   2.975147   8.908911 19.850062
1095  3 0.0000   1.308342   6.237981 24.895055
1096  3 0.0000   5.362400  22.263559  4.715082
1097  3 0.0000   3.695596  19.592629  9.760075
1098  3 0.0000   2.028791  16.921699 14.805069
1099  3 0.0000   0.361986  14.250769 19.850062
1100  3 0.0000  -1.304818  11.579839 24.895055
1101  3 0.0000  21.761812   0.896130  4.715082
1102  3 0.0000  20.095007  -1.774800  9.760075
1103  3 0.0000  18.428202  -4.445730 14.805069
1104  3 0.0000  16.761398  -7.116660 19.850062
1105  3 0.0000  15.094593  -9.787590 24.895055
1106  3 0.0000  19.148651   6.237987  4.715082
1107  3 0.0000  17.481846   3.567057  9.760075
1108  3 0.0000  15.815042   0.896127 14.805069
1109  3 0.0000  14.148237  -1.774803 19.850062
1110  3 0.0000  12.481432  -4.445733 24.895055
1111  3 0.0000  16.535490  11.579845  4.715082
1112  3 0.0000  14.868686   8.908914  9.760075
1113  3 0.0000  13.201881   6.237984 14.805069
1114  3 0.0000  11.535076   3.567054 19.850062
1115  3 0.0000   9.868272   0.896124 24.895055
1116  3 0.0000  13.922330  16.921702  4.715082
1117  3 0.0000  12.255525  14.250772  9.760075
1118  3 0.0000  10.588720  11.579842 14.805069
1119  3 0.0000   8.921916   8.908911 19.850062
1120  3 0.0000   7.255111   6.237981 24.895055
1121  3 0.0000  11.309169  22.263559  4.715082
1122  3 0.0000   9.642364  19.592629  9.760075
1123  3 0.0000   7.975560  16.921699 14.805069
1124  3 0.0000   6.308755  14.250769 19.850062
1125  3 0.0000   4.641950  11.579839 24.895055
1126  3 0.0000   2.528329  -0.090003  2.192585
1127  3 0.0000   0.861525  -2.760933  7.237579
1128  3 0.0000  -0.805280  -5.431864 12.282572
1129  3 0.0000  -2.472085  -8.102794 17.327565
1130  3 0.0000  -4.138889 -10.773724 22.372559
1131  3 0.0000  -0.084832   5.251854  2.192585
1132  3 0.0000  -1.751636   2.580924  7.237579
1133  3 0.0000  -3.418441  -0.090006 12.282572
1134  3 0.0000  -5.085245  -2.760936 17.327565
1135  3 0.0000  -6.752050  -5.431867 22.372559
1136  3 0.0000  -2.697992  10.593711  2.192585
1137  3 0.0000  -4.364797   7.922781  7.237579
1138  3 0.0000  -6.031601   5.251851 12.282572
1139  3 0.0000  -7.698406   2.580921 17.327565
1140  3 0.0000  -9.365211  -0.090009 22.372559
1141  3 0.0000  -5.311153  15.935568  2.192585
1142  3 0.0000  -6.977958  13.264638  7.237579
1143  3 0.0000  -8.644762  10.593708 12.282572
1144  3 0.0000 -10.311567   7.922778 17.327565
1145  3 0.0000 -11.978371   5.251848 22.372559
1146  3 0.0000  -7.924314  21.277425  2.192585
1147  3 0.0000  -9.591118  18.606495  7.237579
1148  3 0.0000 -11.257923  15.935565 12.282572
1149  3 0.0000 -12.924727  13.264635 17.327565
1150  3 0.0000 -14.591532  10.593705 22.372559
1151  3 0.0000   8.475098  -0.090003  2.192585
1152  3 0.0000   6.808293  -2.760933  7.237579
1153  3 0.0000   5.141488  -5.431864 12.282572
1154  3 0.0000   3.474684  -8.102794 17.327565
1155  3 0.0000   1.807879 -10.773724 22.372559
1156  3 0.0000   5.861937   5.251854  2.192585
1157  3 0.0000   4.195132   2.580924  7.237579
1158  3 0.0000   2.528328  -0.090006 12.282572
1159  3 0.0000   0.861523  -2.760936 17.327565
1160  3 0.0000  -0.805282  -5.431867 22.372559
1161  3 0.0000   3.248776  10.593711  2.192585
1162  3 0.0000   1.581972   7.922781  7.237579
1163  3 0.0000  -0.084833   5.251851 12.282572
1164  3 0.0000  -1.751638   2.580921 17.327565
1165  3 0.0000  -3.418442  -0.090009 22.372559
1166  3 0.0000   0.635616  15.935568  2.192585
1167  3 0.0000  -1.031189  13.264638  7.237579
1168  3 0.0000  -2.697994  10.593708 12.282572
1169  3 0.0000  -4.364798   7.922778 17.327565
1170  3 0.0000  -6.031603   5.251848 22.372559
1171  3 0.0000  -1.977545  21.277425  2.192585
1172  3 0.0000  -3.644350  18.606495  7.237579
1173  3 0.0000  -5.311154  15.935565 12.282572
1174  3 0.0000  -6.977959  13.264635 17.327565
1175  3 0.0000  -8.644764  10.593705 22.372559
1176  3 0.0000  14.421866  -0.090003  2.192585
1177  3 0.0000  12.755061  -2.760933  7.237579
1178  3 0.0000  11.088257  -5.431864 12.282572
1179  3 0.0000   9.421452  -8.102794 17.327565
1180  3 0.0000   7.754648 -10.773724 22.372559
1181  3 0.0000  11.808705   5.251854  2.192585
1182  3 0.0000  10.141901   2.580924  7.237579
1183  3 0.0000   8.475096  -0.090006 12.282572
1184  3 0.0000   6.808291  -2.760936 17.327565
1185  3 0.0000   5.141487  -5.431867 22.372559
1186  3 0.0000   9.195545  10.593711  2.192585
1187  3 0.0000   7.528740   7.922781  7.237579
1188  3 0.0000   5.861935   5.251851 12.282572
1189  3 0.0000   4.195131   2.580921 17.327565
1190  3 0.0000   2.528326  -0.090009 22.372559
1191  3 0.0000   6.582384  15.935568  2.192585
1192  3 0.0000   4.915579  13.264638  7.237579
1193  3 0.0000   3.248775  10.593708 12.282572
1194  3 0.0000   1.581970   7.922778 17.327565
1195  3 0.0000  -0.084835   5.251848 22.372559
1196  3 0.0000   3.969223  21.277425  2.192585
1197  3 0.0000   2.302419  18.606495  7.237579
1198  3 0.0000   0.635614  15.935565 12.282572
1199  3 0.0000  -1.031191  13.264635 17.327565
1200  3 0.0000  -2.697995  10.593705 22.372559
1201  3 0.0000  20.368635  -0.090003  2.192585
1202  3 0.0000  18.701830  -2.760933  7.237579
1203  3 0.0000  17.035025  -5.431864 12.282572
1204  3 0.0000  15.368221  -8.102794 17.327565
1205  3 0.0000  13.701416 -10.773724 22.372559
1206  3 0.0000  17.755474   5.251854  2.192585
1207  3 0.0000  16.088669   2.580924  7.237579
1208  3 0.0000  14.421865  -0.090006 12.282572
1209  3 0.0000  12.755060  -2.760936 17.327565
1210  3 0.0000  11.088255  -5.431867 22.372559
1211  3 0.0000  15.142313  10.593711  2.192585
1212  3 0.0000  13.475509   7.922781  7.237579
1213  3 0.0000  11.808704   5.251851 12.282572
1214  3 0.0000  10.141899   2.580921 17.327565
1215  3 0.0000   8.475095  -0.090009 22.372559
1216  3 0.0000  12.529152  15.935568  2.192585
1217  3 0.0000  10.862348  13.264638  7.237579
1218  3 0.0000   9.195543  10.593708 12.282572
1219  3 0.0000   7.528739   7.922778 17.327565
1220  3 0.0000   5.861934   5.251848 22.372559
1221  3 0.0000   9.915992  21.277425  2.192585
1222  3 0.0000   8.249187  18.606495  7.237579
1223  3 0.0000   6.582383  15.935565 12.282572
1224  3 0.0000   4.915578  13.264635 17.327565
1225  3 0.0000   3.248773  10.593705 22.372559
1226  3 0.0000  26.315403  -0.090003  2.192585
1227  3 0.0000  24.648598  -2.760933  7.237579
1228  3 0.0000  22.981794  -5.431864 12.282572
1229  3 0.0000  21.314989  -8.102794 17.327565
1230  3 0.0000  19.648184 -10.773724 22.372559
1231  3 0.0000  23.702242   5.251854  2.192585
1232  3 0.0000  22.035438   2.580924  7.237579
1233  3 0.0000  20.368633  -0.090006 12.282572
1234  3 0.0000  18.701828  -2.760936 17.327565
1235  3 0.0000  17.035024  -5.431867 22.372559
1236  3 0.0000  21.089082  10.593711  2.192585
1237  3 0.0000  19.422277   7.922781  7.237579
1238  3 0.0000  17.755472   5.251851 12.282572
1239  3 0.0000  16.088668   2.580921 17.327565
1240  3 0.0000  14.421863  -0.090009 22.372559
1241  3 0.0000  18.475921  15.935568  2.192585
1242  3 0.0000  16.809116  13.264638  7.237579
1243  3 0.0000  15.142312  10.593708 12.282572
1244  3 0.0000  13.475507   7.922778 17.327565
1245  3 0.0000  11.808702   5.251848 22.372559
1246  3 0.0000  15.862760  21.277425  2.192585
1247  3 0.0000  14.195956  18.606495  7.237579
1248  3 0.0000  12.529151  15.935565 12.282572
1249  3 0.0000  10.862346  13.264635 17.327565
1250  3 0.0000   9.195542  10.593705 22.372559
1251  3 0.0000   0.948120   0.896137  0.329912
1252  3 0.0000  -0.718685  -1.774793  5.374905
1253  3 0.0000  -2.385489  -4.445723 10.419898
1254  3 0.0000  -4.052294  -7.116653 15.464892
1255  3 0.0000  -5.719099  -9.787584 20.509885
1256  3 0.0000  -1.665041   6.237994  0.329912
1257  3 0.0000  -3.331845   3.567064  5.374905
1258  3 0.0000  -4.998650   0.896134 10.419898
1259  3 0.0000  -6.665455  -1.774796 15.464892
1260  3 0.0000  -8.332259  -4.445726 20.509885
1261  3 0.0000  -4.278201  11.579851  0.329912
1262  3 0.0000  -5.945006   8.908921  5.374905
1263  3 0.0000  -7.611811   6.237991 10.419898
1264  3 0.0000  -9.278615   3.567061 15.464892
1265  3 0.0000 -10.945420   0.896131 20.509885
1266  3 0.0000  -6.891362  16.921708  0.329912
1267  3 0.0000  -8.558167  14.250778  5.374905
1268  3 0.0000 -10.224971  11.579848 10.419898
1269  3 0.0000 -11.891776   8.908918 15.464892
1270  3 0.0000 -13.558581   6.237988 20.509885
1271  3 0.0000  -9.504523  22.263566  0.329912
1272  3 0.0000 -11.171327  19.592636  5.374905
1273  3 0.0000 -12.838132  16.921705 10.419898
1274  3 0.0000 -14.504937  14.250775 15.464892
1275  3 0.0000 -16.171741  11.579845 20.509885
1276  3 0.0000   6.894888   0.896137  0.329912
1277  3 0.0000   5.228084  -1.774793  5.374905
1278  3 0.0000   3.561279  -4.445723 10.419898
1279  3 0.0000   1.894475  -7.116653 15.464892
1280  3 0.0000   0.227670  -9.787584 20.509885
1281  3 0.0000   4.281728   6.237994  0.329912
1282  3 0.0000   2.614923   3.567064  5.374905
1283  3 0.0000   0.948118   0.896134 10.419898
1284  3 0.0000  -0.718686  -1.774796 15.464892
1285  3 0.0000  -2.385491  -4.445726 20.509885
1286  3 0.0000   1.668567  11.579851  0.329912
1287  3 0.0000   0.001762   8.908921  5.374905
1288  3 0.0000  -1.665042   6.237991 10.419898
1289  3 0.0000  -3.331847   3.567061 15.464892
1290  3 0.0000  -4.998651   0.896131 20.509885
1291  3 0.0000  -0.944594  16.921708  0.329912
1292  3 0.0000  -2.611398  14.250778  5.374905
1293  3 0.0000  -4.278203  11.579848 10.419898
1294  3 0.0000  -5.945008   8.908918 15.464892
1295  3 0.0000  -7.611812   6.237988 20.509885
1296  3 0.0000  -3.557754  22.263566  0.329912
1297  3 0.0000  -5.224559  19.592636  5.374905
1298  3 0.0000  -6.891364  16.921705 10.419898
1299  3 0.0000  -8.558168  14.250775 15.464892
1300  3 0.0000 -10.224973  11.579845 20.509885
1301  3 0.0000  12.841657   0.896137  0.329912
1302  3 0.0000  11.174852  -1.774793  5.374905
1303  3 0.0000   9.508048  -4.445723 10.419898
1304  3 0.0000   7.841243  -7.116653 15.464892
1305  3 0.0000   6.174438  -9.787584 20.509885
1306  3 0.0000  10.228496   6.237994  0.329912
1307  3 0.0000   8.561692   3.567064  5.374905
1308  3 0.0000   6.894887   0.896134 10.419898
1309  3 0.0000   5.228082  -1.774796 15.464892
1310  3 0.0000   3.561278  -4.445726 20.509885
1311  3 0.0000   7.615336  11.579851  0.329912
1312  3 0.0000   5.948531   8.908921  5.374905
1313  3 0.0000   4.281726   6.237991 10.419898
1314  3 0.0000   2.614922   3.567061 15.464892
1315  3 0.0000   0.948117   0.896131 20.509885
1316  3 0.0000   5.002175  16.921708  0.329912
1317  3 0.0000   3.335370  14.250778  5.374905
1318  3 0.0000   1.668566  11.579848 10.419898
1319  3 0.0000   0.001761   8.908918 15.464892
1320  3 0.0000  -1.665044   6.237988 20.509885
1321  3 0.0000   2.389014  22.263566  0.329912
1322  3 0.0000   0.722209  19.592636  5.374905
1323  3 0.0000  -0.944595  16.921705 10.419898
1324  3 0.0000  -2.611400  14.250775 15.464892
1325  3 0.0000  -4.278204  11.579845 20.509885
1326  3 0.0000  18.788425   0.896137  0.329912
1327  3 0.0000  17.121621  -1.774793  5.374905
1328  3 0.0000  15.454816  -4.445723 10.419898
1329  3 0.0000  13.788011  -7.116653 15.464892
1330  3 0.0000  12.121207  -9.787584 20.509885
1331  3 0.0000  16.175265   6.237994  0.329912
1332  3 0.0000  14.508460   3.567064  5.374905
1333  3 0.0000  12.841655   0.896134 10.419898
1334  3 0.0000  11.174851  -1.774796 15.464892
1335  3 0.0000   9.508046  -4.445726 20.509885
1336  3 0.0000  13.562104  11.579851  0.329912
1337  3 0.0000  11.895299   8.908921  5.374905
1338  3 0.0000  10.228495   6.237991 10.419898
1339  3 0.0000   8.561690   3.567061 15.464892
1340  3 0.0000   6.894885   0.896131 20.509885
1341  3 0.0000  10.948943  16.921708  0.329912
1342  3 0.0000   9.282139  14.250778  5.374905
1343  3 0.0000   7.615334  11.579848 10.419898
1344  3 0.0000   5.948529   8.908918 15.464892
1345  3 0.0000   4.281725   6.237988 20.509885
1346  3 0.0000   8.335783  22.263566  0.329912
1347  3 0.0000   6.668978  19.592636  5.374905
1348  3 0.0000   5.002173  16.921705 10.419898
1349  3 0.0000   3.335369  14.250775 15.464892
1350  3 0.0000   1.668564  11.579845 20.509885
1351  3 0.0000  24.735194   0.896137  0.329912
1352  3 0.0000  23.068389  -1.774793  5.374905
1353  3 0.0000  21.401585  -4.445723 10.419898
1354  3 0.0000  19.734780  -7.116653 15.464892
1355  3 0.0000  18.067975  -9.787584 20.509885
1356  3 0.0000  22.122033   6.237994  0.329912
1357  3 0.0000  20.455228   3.567064  5.374905
1358  3 0.0000  18.788424   0.896134 10.419898
1359  3 0.0000  17.121619  -1.774796 15.464892
1360  3 0.0000  15.454815  -4.445726 20.509885
1361  3 0.0000  19.508872  11.579851  0.329912
1362  3 0.0000  17.842068   8.908921  5.374905
1363  3 0.0000  16.175263   6.237991 10.419898
1364  3 0.0000  14.508459   3.567061 15.464892
1365  3 0.0000  12.841654   0.896131 20.509885
1366  3 0.0000  16.895712  16.921708  0.329912
1367  3 0.0000  15.228907  14.250778  5.374905
1368  3 0.0000  13.562102  11.579848 10.419898
1369  3 0.0000  11.895298   8.908918 15.464892
1370  3 0.0000  10.228493   6.237988 20.509885
1371  3 0.0000  14.282551  22.263566  0.329912
1372  3 0.0000  12.615746  19.592636  5.374905
1373  3 0.0000  10.948942  16.921705 10.419898
1374  3 0.0000   9.282137  14.250775 15.464892
1375  3 0.0000   7.615333  11.579845 20.509885
1376  3 0.0000  -0.445049  -0.090004  2.852408
1377  3 0.0000  -2.111854  -2.760934  7.897402
1378  3 0.0000  -3.778658  -5.431864 12.942395
1379  3 0.0000  -5.445463  -8.102794 17.987388
1380  3 0.0000  -7.112268 -10.773724 23.032382
1381  3 0.0000  -3.058210   5.251854  2.852408
1382  3 0.0000  -4.725014   2.580924  7.897402
1383  3 0.0000  -6.391819  -0.090007 12.942395
1384  3 0.0000  -8.058624  -2.760937 17.987388
1385  3 0.0000  -9.725428  -5.431867 23.032382
1386  3 0.0000  -5.671371  10.593711  2.852408
1387  3 0.0000  -7.338175   7.922781  7.897402
1388  3 0.0000  -9.004980   5.251851 12.942395
1389  3 0.0000 -10.671784   2.580921 17.987388
1390  3 0.0000 -12.338589  -0.090010 23.032382
1391  3 0.0000  -8.284531  15.935568  2.852408
1392  3 0.0000  -9.951336  13.264638  7.897402
1393  3 0.0000 -11.618140  10.593708 12.942395
1394  3 0.0000 -13.284945   7.922778 17.987388
1395  3 0.0000 -14.951750   5.251848 23.032382
1396  3 0.0000 -10.897692  21.277425  2.852408
1397  3 0.0000 -12.564497  18.606495  7.897402
1398  3 0.0000 -14.231301  15.935565 12.942395
1399  3 0.0000 -15.898106  13.264635 17.987388
1400  3 0.0000 -17.564910  10.593705 23.032382
1401  3 0.0000   5.501719  -0.090004  2.852408
1402  3 0.0000   3.834915  -2.760934  7.897402
1403  3 0.0000   2.168110  -5.431864 12.942395
1404  3 0.0000   0.501305  -8.102794 17.987388
1405  3 0.0000  -1.165499 -10.773724 23.032382
1406  3 0.0000   2.888559   5.251854  2.852408
1407  3 0.0000   1.221754   2.580924  7.897402
1408  3 0.0000  -0.445051  -0.090007 12.942395
1409  3 0.0000  -2.111855  -2.760937 17.987388
1410  3 0.0000  -3.778660  -5.431867 23.032382
1411  3 0.0000   0.275398  10.593711  2.852408
1412  3 0.0000  -1.391407   7.922781  7.897402
1413  3 0.0000  -3.058211   5.251851 12.942395
1414  3 0.0000  -4.725016   2.580921 17.987388
1415  3 0.0000  -6.391821  -0.090010 23.032382
1416  3 0.0000  -2.337763  15.935568  2.852408
1417  3 0.0000  -4.004567  13.264638  7.897402
1418  3 0.0000  -5.671372  10.593708 12.942395
1419  3 0.0000  -7.338177   7.922778 17.987388
1420  3 0.0000  -9.004981   5.251848 23.032382
1421  3 0.0000  -4.950923  21.277425  2.852408
1422  3 0.0000  -6.617728  18.606495  7.897402
1423  3 0.0000  -8.284533  15.935565 12.942395
1424  3 0.0000  -9.951337  13.264635 17.987388
1425  3 0.0000 -11.618142  10.593705 23.032382
1426  3 0.0000  11.448488  -0.090004  2.852408
1427  3 0.0000   9.781683  -2.760934  7.897402
1428  3 0.0000   8.114878  -5.431864 12.942395
1429  3 0.0000   6.448074  -8.102794 17.987388
1430  3 0.0000   4.781269 -10.773724 23.032382
1431  3 0.0000   8.835327   5.251854  2.852408
1432  3 0.0000   7.168522   2.580924  7.897402
1433  3 0.0000   5.501718  -0.090007 12.942395
1434  3 0.0000   3.834913  -2.760937 17.987388
1435  3 0.0000   2.168109  -5.431867 23.032382
1436  3 0.0000   6.222166  10.593711  2.852408
1437  3 0.0000   4.555362   7.922781  7.897402
1438  3 0.0000   2.888557   5.251851 12.942395
1439  3 0.0000   1.221752   2.580921 17.987388
1440  3 0.0000  -0.445052  -0.090010 23.032382
1441  3 0.0000   3.609006  15.935568  2.852408
1442  3 0.0000   1.942201  13.264638  7.897402
1443  3 0.0000   0.275396  10.593708 12.942395
1444  3 0.0000  -1.391408   7.922778 17.987388
1445  3 0.0000  -3.058213   5.251848 23.032382
1446  3 0.0000   0.995845  21.277425  2.852408
1447  3 0.0000  -0.670960  18.606495  7.897402
1448  3 0.0000  -2.337764  15.935565 12.942395
1449  3 0.0000  -4.004569  13.264635 17.987388
1450  3 0.0000  -5.671374  10.593705 23.032382
1451  3 0.0000  17.395256  -0.090004  2.852408
1452  3 0.0000  15.728452  -2.760934  7.897402
1453  3 0.0000  14.061647  -5.431864 12.942395
1454  3 0.0000  12.394842  -8.102794 17.987388
1455  3 0.0000  10.728038 -10.773724 23.032382
1456  3 0.0000  14.782096   5.251854  2.852408
1457  3 0.0000  13.115291   2.580924  7.897402
1458  3 0.0000  11.448486  -0.090007 12.942395
1459  3 0.0000   9.781682  -2.760937 17.987388
1460  3 0.0000   8.114877  -5.431867 23.032382
1461  3 0.0000  12.168935  10.593711  2.852408
1462  3 0.0000  10.502130   7.922781  7.897402
1463  3 0.0000   8.835326   5.251851 12.942395
1464  3 0.0000   7.168521   2.580921 17.987388
1465  3 0.0000   5.501716  -0.090010 23.032382
1466  3 0.0000   9.555774  15.935568  2.852408
1467  3 0.0000   7.888970  13.264638  7.897402
1468  3 0.0000   6.222165  10.593708 12.942395
1469  3 0.0000   4.555360   7.922778 17.987388
1470  3 0.0000   2.888556   5.251848 23.032382
1471  3 0.0000   6.942613  21.277425  2.852408
1472  3 0.0000   5.275809  18.606495  7.897402
1473  3 0.0000   3.609004  15.935565 12.942395
1474  3 0.0000   1.942200  13.264635 17.987388
1475  3 0.0000   0.275395  10.593705 23.032382
1476  3 0.0000  23.342025  -0.090004  2.852408
1477  3 0.0000  21.675220  -2.760934  7.897402
1478  3 0.0000  20.008415  -5.431864 12.942395
1479  3 0.0000  18.341611  -8.102794 17.987388
1480  3 0.0000  16.674806 -10.773724 23.032382
1481  3 0.0000  20.728864   5.251854  2.852408
1482  3 0.0000  19.062059   2.580924  7.897402
1483  3 0.0000  17.395255  -0.090007 12.942395
1484  3 0.0000  15.728450  -2.760937 17.987388
1485  3 0.0000  14.061645  -5.431867 23.032382
1486  3 0.0000  18.115703  10.593711  2.852408
1487  3 0.0000  16.448899   7.922781  7.897402
1488  3 0.0000  14.782094   5.251851 12.942395
1489  3 0.0000  13.115289   2.580921 17.987388
1490  3 0.0000  11.448485  -0.090010 23.032382
1491  3 0.0000  15.502543  15.935568  2.852408
1492  3 0.0000  13.835738  13.264638  7.897402
1493  3 0.0000  12.168933  10.593708 12.942395
1494  3 0.0000  10.502129   7.922778 17.987388
1495  3 0.0000   8.835324   5.251848 23.032382
1496  3 0.0000  12.889382  21.277425  2.852408
1497  3 0.0000  11.222577  18.606495  7.897402
1498  3 0.0000   9.555773  15.935565 12.942395
1499  3 0.0000   7.888968  13.264635 17.987388
1500  3 0.0000   6.222163  10.593705 23.032382

