Generated by pymatgen.io.lammps.data.LammpsData

256  atoms

  2  atom types

0.000000 12.949404  xlo xhi
0.000000 22.429026  ylo yhi
0.000000 10.444123  zlo zhi

Masses

1  65.4090
2  15.9994

Atoms

1    1 0.0000  1.618676  0.934543 2.614121
2    1 0.0000  1.618676  0.934543 7.836182
3    1 0.0000  1.618676  6.541799 2.614121
4    1 0.0000  1.618676  6.541799 7.836182
5    1 0.0000  1.618676 12.149056 2.614121
6    1 0.0000  1.618676 12.149056 7.836182
7    1 0.0000  1.618676 17.756312 2.614121
8    1 0.0000  1.618676 17.756312 7.836182
9    1 0.0000  4.856027  0.934543 2.614121
10   1 0.0000  4.856027  0.934543 7.836182
11   1 0.0000  4.856027  6.541799 2.614121
12   1 0.0000  4.856027  6.541799 7.836182
13   1 0.0000  4.856027 12.149056 2.614121
14   1 0.0000  4.856027 12.149056 7.836182
15   1 0.0000  4.856027 17.756312 2.614121
16   1 0.0000  4.856027 17.756312 7.836182
17   1 0.0000  8.093378  0.934543 2.614121
18   1 0.0000  8.093378  0.934543 7.836182
19   1 0.0000  8.093378  6.541799 2.614121
20   1 0.0000  8.093378  6.541799 7.836182
21   1 0.0000  8.093378 12.149056 2.614121
22   1 0.0000  8.093378 12.149056 7.836182
23   1 0.0000  8.093378 17.756312 2.614121
24   1 0.0000  8.093378 17.756312 7.836182
25   1 0.0000 11.330729  0.934543 2.614121
26   1 0.0000 11.330729  0.934543 7.836182
27   1 0.0000 11.330729  6.541799 2.614121
28   1 0.0000 11.330729  6.541799 7.836182
29   1 0.0000 11.330729 12.149056 2.614121
30   1 0.0000 11.330729 12.149056 7.836182
31   1 0.0000 11.330729 17.756312 2.614121
32   1 0.0000 11.330729 17.756312 7.836182
33   1 0.0000  0.000000  3.738171 2.614121
34   1 0.0000  0.000000  3.738171 7.836182
35   1 0.0000  0.000000  9.345427 2.614121
36   1 0.0000  0.000000  9.345427 7.836182
37   1 0.0000  0.000000 14.952684 2.614121
38   1 0.0000  0.000000 14.952684 7.836182
39   1 0.0000  0.000000 20.559940 2.614121
40   1 0.0000  0.000000 20.559940 7.836182
41   1 0.0000  3.237351  3.738171 2.614121
42   1 0.0000  3.237351  3.738171 7.836182
43   1 0.0000  3.237351  9.345427 2.614121
44   1 0.0000  3.237351  9.345427 7.836182
45   1 0.0000  3.237351 14.952684 2.614121
46   1 0.0000  3.237351 14.952684 7.836182
47   1 0.0000  3.237351 20.559940 2.614121
48   1 0.0000  3.237351 20.559940 7.836182
49   1 0.0000  6.474702  3.738171 2.614121
50   1 0.0000  6.474702  3.738171 7.836182
51   1 0.0000  6.474702  9.345427 2.614121
52   1 0.0000  6.474702  9.345427 7.836182
53   1 0.0000  6.474702 14.952684 2.614121
54   1 0.0000  6.474702 14.952684 7.836182
55   1 0.0000  6.474702 20.559940 2.614121
56   1 0.0000  6.474702 20.559940 7.836182
57   1 0.0000  9.712053  3.738171 2.614121
58   1 0.0000  9.712053  3.738171 7.836182
59   1 0.0000  9.712053  9.345427 2.614121
60   1 0.0000  9.712053  9.345427 7.836182
61   1 0.0000  9.712053 14.952684 2.614121
62   1 0.0000  9.712053 14.952684 7.836182
63   1 0.0000  9.712053 20.559940 2.614121
64   1 0.0000  9.712053 20.559940 7.836182
65   1 0.0000  0.000000  1.869085 0.003090
66   1 0.0000  0.000000  1.869085 5.225151
67   1 0.0000  0.000000  7.476342 0.003090
68   1 0.0000  0.000000  7.476342 5.225151
69   1 0.0000  0.000000 13.083598 0.003090
70   1 0.0000  0.000000 13.083598 5.225151
71   1 0.0000  0.000000 18.690855 0.003090
72   1 0.0000  0.000000 18.690855 5.225151
73   1 0.0000  3.237351  1.869085 0.003090
74   1 0.0000  3.237351  1.869085 5.225151
75   1 0.0000  3.237351  7.476342 0.003090
76   1 0.0000  3.237351  7.476342 5.225151
77   1 0.0000  3.237351 13.083598 0.003090
78   1 0.0000  3.237351 13.083598 5.225151
79   1 0.0000  3.237351 18.690855 0.003090
80   1 0.0000  3.237351 18.690855 5.225151
81   1 0.0000  6.474702  1.869085 0.003090
82   1 0.0000  6.474702  1.869085 5.225151
83   1 0.0000  6.474702  7.476342 0.003090
84   1 0.0000  6.474702  7.476342 5.225151
85   1 0.0000  6.474702 13.083598 0.003090
86   1 0.0000  6.474702 13.083598 5.225151
87   1 0.0000  6.474702 18.690855 0.003090
88   1 0.0000  6.474702 18.690855 5.225151
89   1 0.0000  9.712053  1.869085 0.003090
90   1 0.0000  9.712053  1.869085 5.225151
91   1 0.0000  9.712053  7.476342 0.003090
92   1 0.0000  9.712053  7.476342 5.225151
93   1 0.0000  9.712053 13.083598 0.003090
94   1 0.0000  9.712053 13.083598 5.225151
95   1 0.0000  9.712053 18.690855 0.003090
96   1 0.0000  9.712053 18.690855 5.225151
97   1 0.0000  1.618676  4.672714 0.003090
98   1 0.0000  1.618676  4.672714 5.225151
99   1 0.0000  1.618676 10.279970 0.003090
100  1 0.0000  1.618676 10.279970 5.225151
101  1 0.0000  1.618676 15.887227 0.003090
102  1 0.0000  1.618676 15.887227 5.225151
103  1 0.0000  1.618676 21.494483 0.003090
104  1 0.0000  1.618676 21.494483 5.225151
105  1 0.0000  4.856027  4.672714 0.003090
106  1 0.0000  4.856027  4.672714 5.225151
107  1 0.0000  4.856027 10.279970 0.003090
108  1 0.0000  4.856027 10.279970 5.225151
109  1 0.0000  4.856027 15.887227 0.003090
110  1 0.0000  4.856027 15.887227 5.225151
111  1 0.0000  4.856027 21.494483 0.003090
112  1 0.0000  4.856027 21.494483 5.225151
113  1 0.0000  8.093378  4.672714 0.003090
114  1 0.0000  8.093378  4.672714 5.225151
115  1 0.0000  8.093378 10.279970 0.003090
116  1 0.0000  8.093378 10.279970 5.225151
117  1 0.0000  8.093378 15.887227 0.003090
118  1 0.0000  8.093378 15.887227 5.225151
119  1 0.0000  8.093378 21.494483 0.003090
120  1 0.0000  8.093378 21.494483 5.225151
121  1 0.0000 11.330729  4.672714 0.003090
122  1 0.0000 11.330729  4.672714 5.225151
123  1 0.0000 11.330729 10.279970 0.003090
124  1 0.0000 11.330729 10.279970 5.225151
125  1 0.0000 11.330729 15.887227 0.003090
126  1 0.0000 11.330729 15.887227 5.225151
127  1 0.0000 11.330729 21.494483 0.003090
128  1 0.0000 11.330729 21.494483 5.225151
129  2 0.0000  1.618676  0.934543 4.593943
130  2 0.0000  1.618676  0.934543 9.816004
131  2 0.0000  1.618676  6.541799 4.593943
132  2 0.0000  1.618676  6.541799 9.816004
133  2 0.0000  1.618676 12.149056 4.593943
134  2 0.0000  1.618676 12.149056 9.816004
135  2 0.0000  1.618676 17.756312 4.593943
136  2 0.0000  1.618676 17.756312 9.816004
137  2 0.0000  4.856027  0.934543 4.593943
138  2 0.0000  4.856027  0.934543 9.816004
139  2 0.0000  4.856027  6.541799 4.593943
140  2 0.0000  4.856027  6.541799 9.816004
141  2 0.0000  4.856027 12.149056 4.593943
142  2 0.0000  4.856027 12.149056 9.816004
143  2 0.0000  4.856027 17.756312 4.593943
144  2 0.0000  4.856027 17.756312 9.816004
145  2 0.0000  8.093378  0.934543 4.593943
146  2 0.0000  8.093378  0.934543 9.816004
147  2 0.0000  8.093378  6.541799 4.593943
148  2 0.0000  8.093378  6.541799 9.816004
149  2 0.0000  8.093378 12.149056 4.593943
150  2 0.0000  8.093378 12.149056 9.816004
151  2 0.0000  8.093378 17.756312 4.593943
152  2 0.0000  8.093378 17.756312 9.816004
153  2 0.0000 11.330729  0.934543 4.593943
154  2 0.0000 11.330729  0.934543 9.816004
155  2 0.0000 11.330729  6.541799 4.593943
156  2 0.0000 11.330729  6.541799 9.816004
157  2 0.0000 11.330729 12.149056 4.593943
158  2 0.0000 11.330729 12.149056 9.816004
159  2 0.0000 11.330729 17.756312 4.593943
160  2 0.0000 11.330729 17.756312 9.816004
161  2 0.0000  0.000000  3.738171 4.593943
162  2 0.0000  0.000000  3.738171 9.816004
163  2 0.0000  0.000000  9.345427 4.593943
164  2 0.0000  0.000000  9.345427 9.816004
165  2 0.0000  0.000000 14.952684 4.593943
166  2 0.0000  0.000000 14.952684 9.816004
167  2 0.0000  0.000000 20.559940 4.593943
168  2 0.0000  0.000000 20.559940 9.816004
169  2 0.0000  3.237351  3.738171 4.593943
170  2 0.0000  3.237351  3.738171 9.816004
171  2 0.0000  3.237351  9.345427 4.593943
172  2 0.0000  3.237351  9.345427 9.816004
173  2 0.0000  3.237351 14.952684 4.593943
174  2 0.0000  3.237351 14.952684 9.816004
175  2 0.0000  3.237351 20.559940 4.593943
176  2 0.0000  3.237351 20.559940 9.816004
177  2 0.0000  6.474702  3.738171 4.593943
178  2 0.0000  6.474702  3.738171 9.816004
179  2 0.0000  6.474702  9.345427 4.593943
180  2 0.0000  6.474702  9.345427 9.816004
181  2 0.0000  6.474702 14.952684 4.593943
182  2 0.0000  6.474702 14.952684 9.816004
183  2 0.0000  6.474702 20.559940 4.593943
184  2 0.0000  6.474702 20.559940 9.816004
185  2 0.0000  9.712053  3.738171 4.593943
186  2 0.0000  9.712053  3.738171 9.816004
187  2 0.0000  9.712053  9.345427 4.593943
188  2 0.0000  9.712053  9.345427 9.816004
189  2 0.0000  9.712053 14.952684 4.593943
190  2 0.0000  9.712053 14.952684 9.816004
191  2 0.0000  9.712053 20.559940 4.593943
192  2 0.0000  9.712053 20.559940 9.816004
193  2 0.0000  0.000000  1.869085 1.982912
194  2 0.0000  0.000000  1.869085 7.204974
195  2 0.0000  0.000000  7.476342 1.982912
196  2 0.0000  0.000000  7.476342 7.204974
197  2 0.0000  0.000000 13.083598 1.982912
198  2 0.0000  0.000000 13.083598 7.204974
199  2 0.0000  0.000000 18.690855 1.982912
200  2 0.0000  0.000000 18.690855 7.204974
201  2 0.0000  3.237351  1.869085 1.982912
202  2 0.0000  3.237351  1.869085 7.204974
203  2 0.0000  3.237351  7.476342 1.982912
204  2 0.0000  3.237351  7.476342 7.204974
205  2 0.0000  3.237351 13.083598 1.982912
206  2 0.0000  3.237351 13.083598 7.204974
207  2 0.0000  3.237351 18.690855 1.982912
208  2 0.0000  3.237351 18.690855 7.204974
209  2 0.0000  6.474702  1.869085 1.982912
210  2 0.0000  6.474702  1.869085 7.204974
211  2 0.0000  6.474702  7.476342 1.982912
212  2 0.0000  6.474702  7.476342 7.204974
213  2 0.0000  6.474702 13.083598 1.982912
214  2 0.0000  6.474702 13.083598 7.204974
215  2 0.0000  6.474702 18.690855 1.982912
216  2 0.0000  6.474702 18.690855 7.204974
217  2 0.0000  9.712053  1.869085 1.982912
218  2 0.0000  9.712053  1.869085 7.204974
219  2 0.0000  9.712053  7.476342 1.982912
220  2 0.0000  9.712053  7.476342 7.204974
221  2 0.0000  9.712053 13.083598 1.982912
222  2 0.0000  9.712053 13.083598 7.204974
223  2 0.0000  9.712053 18.690855 1.982912
224  2 0.0000  9.712053 18.690855 7.204974
225  2 0.0000  1.618676  4.672714 1.982912
226  2 0.0000  1.618676  4.672714 7.204974
227  2 0.0000  1.618676 10.279970 1.982912
228  2 0.0000  1.618676 10.279970 7.204974
229  2 0.0000  1.618676 15.887227 1.982912
230  2 0.0000  1.618676 15.887227 7.204974
231  2 0.0000  1.618676 21.494483 1.982912
232  2 0.0000  1.618676 21.494483 7.204974
233  2 0.0000  4.856027  4.672714 1.982912
234  2 0.0000  4.856027  4.672714 7.204974
235  2 0.0000  4.856027 10.279970 1.982912
236  2 0.0000  4.856027 10.279970 7.204974
237  2 0.0000  4.856027 15.887227 1.982912
238  2 0.0000  4.856027 15.887227 7.204974
239  2 0.0000  4.856027 21.494483 1.982912
240  2 0.0000  4.856027 21.494483 7.204974
241  2 0.0000  8.093378  4.672714 1.982912
242  2 0.0000  8.093378  4.672714 7.204974
243  2 0.0000  8.093378 10.279970 1.982912
244  2 0.0000  8.093378 10.279970 7.204974
245  2 0.0000  8.093378 15.887227 1.982912
246  2 0.0000  8.093378 15.887227 7.204974
247  2 0.0000  8.093378 21.494483 1.982912
248  2 0.0000  8.093378 21.494483 7.204974
249  2 0.0000 11.330729  4.672714 1.982912
250  2 0.0000 11.330729  4.672714 7.204974
251  2 0.0000 11.330729 10.279970 1.982912
252  2 0.0000 11.330729 10.279970 7.204974
253  2 0.0000 11.330729 15.887227 1.982912
254  2 0.0000 11.330729 15.887227 7.204974
255  2 0.0000 11.330729 21.494483 1.982912
256  2 0.0000 11.330729 21.494483 7.204974

