Generated by pymatgen.io.lammps.data.LammpsData

448  atoms

  2  atom types

0.000000 7.617575  xlo xhi
0.000000 13.194026  ylo yhi
0.000000 87.110787  zlo zhi

Masses

1  65.409
2  32.065

Atoms

1    1 0.0000 0.000000  0.000000  6.221954
2    1 0.0000 0.000000  6.597013  6.221954
3    1 0.0000 3.808787 -0.000000  6.221954
4    1 0.0000 3.808787  6.597013  6.221954
5    1 0.0000 1.904394  3.298507  6.221954
6    1 0.0000 1.904394  9.895520  6.221954
7    1 0.0000 5.713181  3.298507  6.221954
8    1 0.0000 5.713181  9.895520  6.221954
9    1 0.0000 0.000000  2.199004 27.999837
10   1 0.0000 0.000000  8.796017 27.999837
11   1 0.0000 3.808787  2.199004 27.999837
12   1 0.0000 3.808787  8.796017 27.999837
13   1 0.0000 1.904394  5.497511 27.999837
14   1 0.0000 1.904394 12.094524 27.999837
15   1 0.0000 5.713181  5.497511 27.999837
16   1 0.0000 5.713181 12.094524 27.999837
17   1 0.0000 0.000000  2.199004 18.667563
18   1 0.0000 0.000000  8.796017 18.667563
19   1 0.0000 3.808787  2.199004 18.667563
20   1 0.0000 3.808787  8.796017 18.667563
21   1 0.0000 1.904394  5.497511 18.667563
22   1 0.0000 1.904394 12.094524 18.667563
23   1 0.0000 5.713181  5.497511 18.667563
24   1 0.0000 5.713181 12.094524 18.667563
25   1 0.0000 1.904394  1.099502 12.444947
26   1 0.0000 1.904394  7.696515 12.444947
27   1 0.0000 5.713181  1.099502 12.444947
28   1 0.0000 5.713181  7.696515 12.444947
29   1 0.0000 0.000000  4.398009 12.444947
30   1 0.0000 0.000000 10.995022 12.444947
31   1 0.0000 3.808787  4.398009 12.444947
32   1 0.0000 3.808787 10.995022 12.444947
33   1 0.0000 1.904394  1.099502 31.111081
34   1 0.0000 1.904394  7.696515 31.111081
35   1 0.0000 5.713181  1.099502 31.111081
36   1 0.0000 5.713181  7.696515 31.111081
37   1 0.0000 0.000000  4.398009 31.111081
38   1 0.0000 0.000000 10.995022 31.111081
39   1 0.0000 3.808787  4.398009 31.111081
40   1 0.0000 3.808787 10.995022 31.111081
41   1 0.0000 0.000000  0.000000 34.222844
42   1 0.0000 0.000000  6.597013 34.222844
43   1 0.0000 3.808787 -0.000000 34.222844
44   1 0.0000 3.808787  6.597013 34.222844
45   1 0.0000 1.904394  3.298507 34.222844
46   1 0.0000 1.904394  9.895520 34.222844
47   1 0.0000 5.713181  3.298507 34.222844
48   1 0.0000 5.713181  9.895520 34.222844
49   1 0.0000 1.904394  1.099502 40.444868
50   1 0.0000 1.904394  7.696515 40.444868
51   1 0.0000 5.713181  1.099502 40.444868
52   1 0.0000 5.713181  7.696515 40.444868
53   1 0.0000 0.000000  4.398009 40.444868
54   1 0.0000 0.000000 10.995022 40.444868
55   1 0.0000 3.808787  4.398009 40.444868
56   1 0.0000 3.808787 10.995022 40.444868
57   1 0.0000 0.000000  0.000000 71.554655
58   1 0.0000 0.000000  6.597013 71.554655
59   1 0.0000 3.808787 -0.000000 71.554655
60   1 0.0000 3.808787  6.597013 71.554655
61   1 0.0000 1.904394  3.298507 71.554655
62   1 0.0000 1.904394  9.895520 71.554655
63   1 0.0000 5.713181  3.298507 71.554655
64   1 0.0000 5.713181  9.895520 71.554655
65   1 0.0000 0.000000  2.199004 55.999990
66   1 0.0000 0.000000  8.796017 55.999990
67   1 0.0000 3.808787  2.199004 55.999990
68   1 0.0000 3.808787  8.796017 55.999990
69   1 0.0000 1.904394  5.497511 55.999990
70   1 0.0000 1.904394 12.094524 55.999990
71   1 0.0000 5.713181  5.497511 55.999990
72   1 0.0000 5.713181 12.094524 55.999990
73   1 0.0000 1.904394  1.099502 49.777874
74   1 0.0000 1.904394  7.696515 49.777874
75   1 0.0000 5.713181  1.099502 49.777874
76   1 0.0000 5.713181  7.696515 49.777874
77   1 0.0000 0.000000  4.398009 49.777874
78   1 0.0000 0.000000 10.995022 49.777874
79   1 0.0000 3.808787  4.398009 49.777874
80   1 0.0000 3.808787 10.995022 49.777874
81   1 0.0000 1.904394  1.099502 68.443704
82   1 0.0000 1.904394  7.696515 68.443704
83   1 0.0000 5.713181  1.099502 68.443704
84   1 0.0000 5.713181  7.696515 68.443704
85   1 0.0000 0.000000  4.398009 68.443704
86   1 0.0000 0.000000 10.995022 68.443704
87   1 0.0000 3.808787  4.398009 68.443704
88   1 0.0000 3.808787 10.995022 68.443704
89   1 0.0000 0.000000  2.199004 46.666952
90   1 0.0000 0.000000  8.796017 46.666952
91   1 0.0000 3.808787  2.199004 46.666952
92   1 0.0000 3.808787  8.796017 46.666952
93   1 0.0000 1.904394  5.497511 46.666952
94   1 0.0000 1.904394 12.094524 46.666952
95   1 0.0000 5.713181  5.497511 46.666952
96   1 0.0000 5.713181 12.094524 46.666952
97   1 0.0000 1.904394  1.099502 74.667531
98   1 0.0000 1.904394  7.696515 74.667531
99   1 0.0000 5.713181  1.099502 74.667531
100  1 0.0000 5.713181  7.696515 74.667531
101  1 0.0000 0.000000  4.398009 74.667531
102  1 0.0000 0.000000 10.995022 74.667531
103  1 0.0000 3.808787  4.398009 74.667531
104  1 0.0000 3.808787 10.995022 74.667531
105  1 0.0000 0.000000  2.199004 77.777925
106  1 0.0000 0.000000  8.796017 77.777925
107  1 0.0000 3.808787  2.199004 77.777925
108  1 0.0000 3.808787  8.796017 77.777925
109  1 0.0000 1.904394  5.497511 77.777925
110  1 0.0000 1.904394 12.094524 77.777925
111  1 0.0000 5.713181  5.497511 77.777925
112  1 0.0000 5.713181 12.094524 77.777925
113  1 0.0000 0.000000  0.000000 24.889108
114  1 0.0000 0.000000  6.597013 24.889108
115  1 0.0000 3.808787 -0.000000 24.889108
116  1 0.0000 3.808787  6.597013 24.889108
117  1 0.0000 1.904394  3.298507 24.889108
118  1 0.0000 1.904394  9.895520 24.889108
119  1 0.0000 5.713181  3.298507 24.889108
120  1 0.0000 5.713181  9.895520 24.889108
121  1 0.0000 0.000000  0.000000 52.888835
122  1 0.0000 0.000000  6.597013 52.888835
123  1 0.0000 3.808787 -0.000000 52.888835
124  1 0.0000 3.808787  6.597013 52.888835
125  1 0.0000 1.904394  3.298507 52.888835
126  1 0.0000 1.904394  9.895520 52.888835
127  1 0.0000 5.713181  3.298507 52.888835
128  1 0.0000 5.713181  9.895520 52.888835
129  1 0.0000 1.904394  1.099502 59.110886
130  1 0.0000 1.904394  7.696515 59.110886
131  1 0.0000 5.713181  1.099502 59.110886
132  1 0.0000 5.713181  7.696515 59.110886
133  1 0.0000 0.000000  4.398009 59.110886
134  1 0.0000 0.000000 10.995022 59.110886
135  1 0.0000 3.808787  4.398009 59.110886
136  1 0.0000 3.808787 10.995022 59.110886
137  1 0.0000 0.000000  0.000000 62.222761
138  1 0.0000 0.000000  6.597013 62.222761
139  1 0.0000 3.808787 -0.000000 62.222761
140  1 0.0000 3.808787  6.597013 62.222761
141  1 0.0000 1.904394  3.298507 62.222761
142  1 0.0000 1.904394  9.895520 62.222761
143  1 0.0000 5.713181  3.298507 62.222761
144  1 0.0000 5.713181  9.895520 62.222761
145  1 0.0000 0.000000  2.199004  9.333470
146  1 0.0000 0.000000  8.796017  9.333470
147  1 0.0000 3.808787  2.199004  9.333470
148  1 0.0000 3.808787  8.796017  9.333470
149  1 0.0000 1.904394  5.497511  9.333470
150  1 0.0000 1.904394 12.094524  9.333470
151  1 0.0000 5.713181  5.497511  9.333470
152  1 0.0000 5.713181 12.094524  9.333470
153  1 0.0000 0.000000  0.000000 80.888680
154  1 0.0000 0.000000  6.597013 80.888680
155  1 0.0000 3.808787 -0.000000 80.888680
156  1 0.0000 3.808787  6.597013 80.888680
157  1 0.0000 1.904394  3.298507 80.888680
158  1 0.0000 1.904394  9.895520 80.888680
159  1 0.0000 5.713181  3.298507 80.888680
160  1 0.0000 5.713181  9.895520 80.888680
161  1 0.0000 1.904394  1.099502  3.112258
162  1 0.0000 1.904394  7.696515  3.112258
163  1 0.0000 5.713181  1.099502  3.112258
164  1 0.0000 5.713181  7.696515  3.112258
165  1 0.0000 0.000000  4.398009  3.112258
166  1 0.0000 0.000000 10.995022  3.112258
167  1 0.0000 3.808787  4.398009  3.112258
168  1 0.0000 3.808787 10.995022  3.112258
169  1 0.0000 0.000000  0.000000 15.555751
170  1 0.0000 0.000000  6.597013 15.555751
171  1 0.0000 3.808787 -0.000000 15.555751
172  1 0.0000 3.808787  6.597013 15.555751
173  1 0.0000 1.904394  3.298507 15.555751
174  1 0.0000 1.904394  9.895520 15.555751
175  1 0.0000 5.713181  3.298507 15.555751
176  1 0.0000 5.713181  9.895520 15.555751
177  1 0.0000 0.000000  2.199004 87.110734
178  1 0.0000 0.000000  8.796017 87.110734
179  1 0.0000 3.808787  2.199004 87.110734
180  1 0.0000 3.808787  8.796017 87.110734
181  1 0.0000 1.904394  5.497511 87.110734
182  1 0.0000 1.904394 12.094524 87.110734
183  1 0.0000 5.713181  5.497511 87.110734
184  1 0.0000 5.713181 12.094524 87.110734
185  1 0.0000 0.000000  0.000000 43.555273
186  1 0.0000 0.000000  6.597013 43.555273
187  1 0.0000 3.808787 -0.000000 43.555273
188  1 0.0000 3.808787  6.597013 43.555273
189  1 0.0000 1.904394  3.298507 43.555273
190  1 0.0000 1.904394  9.895520 43.555273
191  1 0.0000 5.713181  3.298507 43.555273
192  1 0.0000 5.713181  9.895520 43.555273
193  1 0.0000 1.904394  1.099502 83.999685
194  1 0.0000 1.904394  7.696515 83.999685
195  1 0.0000 5.713181  1.099502 83.999685
196  1 0.0000 5.713181  7.696515 83.999685
197  1 0.0000 0.000000  4.398009 83.999685
198  1 0.0000 0.000000 10.995022 83.999685
199  1 0.0000 3.808787  4.398009 83.999685
200  1 0.0000 3.808787 10.995022 83.999685
201  1 0.0000 0.000000  2.199004 37.333356
202  1 0.0000 0.000000  8.796017 37.333356
203  1 0.0000 3.808787  2.199004 37.333356
204  1 0.0000 3.808787  8.796017 37.333356
205  1 0.0000 1.904394  5.497511 37.333356
206  1 0.0000 1.904394 12.094524 37.333356
207  1 0.0000 5.713181  5.497511 37.333356
208  1 0.0000 5.713181 12.094524 37.333356
209  1 0.0000 1.904394  1.099502 21.778070
210  1 0.0000 1.904394  7.696515 21.778070
211  1 0.0000 5.713181  1.099502 21.778070
212  1 0.0000 5.713181  7.696515 21.778070
213  1 0.0000 0.000000  4.398009 21.778070
214  1 0.0000 0.000000 10.995022 21.778070
215  1 0.0000 3.808787  4.398009 21.778070
216  1 0.0000 3.808787 10.995022 21.778070
217  1 0.0000 0.000000  2.199004 65.332799
218  1 0.0000 0.000000  8.796017 65.332799
219  1 0.0000 3.808787  2.199004 65.332799
220  1 0.0000 3.808787  8.796017 65.332799
221  1 0.0000 1.904394  5.497511 65.332799
222  1 0.0000 1.904394 12.094524 65.332799
223  1 0.0000 5.713181  5.497511 65.332799
224  1 0.0000 5.713181 12.094524 65.332799
225  2 0.0000 0.000000  0.000000 17.888663
226  2 0.0000 0.000000  6.597013 17.888663
227  2 0.0000 3.808787 -0.000000 17.888663
228  2 0.0000 3.808787  6.597013 17.888663
229  2 0.0000 1.904394  3.298507 17.888663
230  2 0.0000 1.904394  9.895520 17.888663
231  2 0.0000 5.713181  3.298507 17.888663
232  2 0.0000 5.713181  9.895520 17.888663
233  2 0.0000 0.000000  2.199004 30.332812
234  2 0.0000 0.000000  8.796017 30.332812
235  2 0.0000 3.808787  2.199004 30.332812
236  2 0.0000 3.808787  8.796017 30.332812
237  2 0.0000 1.904394  5.497511 30.332812
238  2 0.0000 1.904394 12.094524 30.332812
239  2 0.0000 5.713181  5.497511 30.332812
240  2 0.0000 5.713181 12.094524 30.332812
241  2 0.0000 1.904394  1.099502 70.775093
242  2 0.0000 1.904394  7.696515 70.775093
243  2 0.0000 5.713181  1.099502 70.775093
244  2 0.0000 5.713181  7.696515 70.775093
245  2 0.0000 0.000000  4.398009 70.775093
246  2 0.0000 0.000000 10.995022 70.775093
247  2 0.0000 3.808787  4.398009 70.775093
248  2 0.0000 3.808787 10.995022 70.775093
249  2 0.0000 1.904394  1.099502 86.330667
250  2 0.0000 1.904394  7.696515 86.330667
251  2 0.0000 5.713181  1.099502 86.330667
252  2 0.0000 5.713181  7.696515 86.330667
253  2 0.0000 0.000000  4.398009 86.330667
254  2 0.0000 0.000000 10.995022 86.330667
255  2 0.0000 3.808787  4.398009 86.330667
256  2 0.0000 3.808787 10.995022 86.330667
257  2 0.0000 0.000000  2.199004 39.666331
258  2 0.0000 0.000000  8.796017 39.666331
259  2 0.0000 3.808787  2.199004 39.666331
260  2 0.0000 3.808787  8.796017 39.666331
261  2 0.0000 1.904394  5.497511 39.666331
262  2 0.0000 1.904394 12.094524 39.666331
263  2 0.0000 5.713181  5.497511 39.666331
264  2 0.0000 5.713181 12.094524 39.666331
265  2 0.0000 0.000000  2.199004  2.334964
266  2 0.0000 0.000000  8.796017  2.334964
267  2 0.0000 3.808787  2.199004  2.334964
268  2 0.0000 3.808787  8.796017  2.334964
269  2 0.0000 1.904394  5.497511  2.334964
270  2 0.0000 1.904394 12.094524  2.334964
271  2 0.0000 5.713181  5.497511  2.334964
272  2 0.0000 5.713181 12.094524  2.334964
273  2 0.0000 0.000000  0.000000 55.221717
274  2 0.0000 0.000000  6.597013 55.221717
275  2 0.0000 3.808787 -0.000000 55.221717
276  2 0.0000 3.808787  6.597013 55.221717
277  2 0.0000 1.904394  3.298507 55.221717
278  2 0.0000 1.904394  9.895520 55.221717
279  2 0.0000 5.713181  3.298507 55.221717
280  2 0.0000 5.713181  9.895520 55.221717
281  2 0.0000 0.000000  0.000000 73.889808
282  2 0.0000 0.000000  6.597013 73.889808
283  2 0.0000 3.808787 -0.000000 73.889808
284  2 0.0000 3.808787  6.597013 73.889808
285  2 0.0000 1.904394  3.298507 73.889808
286  2 0.0000 1.904394  9.895520 73.889808
287  2 0.0000 5.713181  3.298507 73.889808
288  2 0.0000 5.713181  9.895520 73.889808
289  2 0.0000 0.000000  2.199004 80.110739
290  2 0.0000 0.000000  8.796017 80.110739
291  2 0.0000 3.808787  2.199004 80.110739
292  2 0.0000 3.808787  8.796017 80.110739
293  2 0.0000 1.904394  5.497511 80.110739
294  2 0.0000 1.904394 12.094524 80.110739
295  2 0.0000 5.713181  5.497511 80.110739
296  2 0.0000 5.713181 12.094524 80.110739
297  2 0.0000 0.000000  0.000000 36.555887
298  2 0.0000 0.000000  6.597013 36.555887
299  2 0.0000 3.808787 -0.000000 36.555887
300  2 0.0000 3.808787  6.597013 36.555887
301  2 0.0000 1.904394  3.298507 36.555887
302  2 0.0000 1.904394  9.895520 36.555887
303  2 0.0000 5.713181  3.298507 36.555887
304  2 0.0000 5.713181  9.895520 36.555887
305  2 0.0000 0.000000  0.000000  8.555054
306  2 0.0000 0.000000  6.597013  8.555054
307  2 0.0000 3.808787 -0.000000  8.555054
308  2 0.0000 3.808787  6.597013  8.555054
309  2 0.0000 1.904394  3.298507  8.555054
310  2 0.0000 1.904394  9.895520  8.555054
311  2 0.0000 5.713181  3.298507  8.555054
312  2 0.0000 5.713181  9.895520  8.555054
313  2 0.0000 0.000000  2.199004 11.666379
314  2 0.0000 0.000000  8.796017 11.666379
315  2 0.0000 3.808787  2.199004 11.666379
316  2 0.0000 3.808787  8.796017 11.666379
317  2 0.0000 1.904394  5.497511 11.666379
318  2 0.0000 1.904394 12.094524 11.666379
319  2 0.0000 5.713181  5.497511 11.666379
320  2 0.0000 5.713181 12.094524 11.666379
321  2 0.0000 0.000000  0.000000 27.221900
322  2 0.0000 0.000000  6.597013 27.221900
323  2 0.0000 3.808787 -0.000000 27.221900
324  2 0.0000 3.808787  6.597013 27.221900
325  2 0.0000 1.904394  3.298507 27.221900
326  2 0.0000 1.904394  9.895520 27.221900
327  2 0.0000 5.713181  3.298507 27.221900
328  2 0.0000 5.713181  9.895520 27.221900
329  2 0.0000 1.904394  1.099502 76.999523
330  2 0.0000 1.904394  7.696515 76.999523
331  2 0.0000 5.713181  1.099502 76.999523
332  2 0.0000 5.713181  7.696515 76.999523
333  2 0.0000 0.000000  4.398009 76.999523
334  2 0.0000 0.000000 10.995022 76.999523
335  2 0.0000 3.808787  4.398009 76.999523
336  2 0.0000 3.808787 10.995022 76.999523
337  2 0.0000 0.000000  0.000000 45.888115
338  2 0.0000 0.000000  6.597013 45.888115
339  2 0.0000 3.808787 -0.000000 45.888115
340  2 0.0000 3.808787  6.597013 45.888115
341  2 0.0000 1.904394  3.298507 45.888115
342  2 0.0000 1.904394  9.895520 45.888115
343  2 0.0000 5.713181  3.298507 45.888115
344  2 0.0000 5.713181  9.895520 45.888115
345  2 0.0000 1.904394  1.099502 33.444339
346  2 0.0000 1.904394  7.696515 33.444339
347  2 0.0000 5.713181  1.099502 33.444339
348  2 0.0000 5.713181  7.696515 33.444339
349  2 0.0000 0.000000  4.398009 33.444339
350  2 0.0000 0.000000 10.995022 33.444339
351  2 0.0000 3.808787  4.398009 33.444339
352  2 0.0000 3.808787 10.995022 33.444339
353  2 0.0000 0.000000  2.199004 58.332516
354  2 0.0000 0.000000  8.796017 58.332516
355  2 0.0000 3.808787  2.199004 58.332516
356  2 0.0000 3.808787  8.796017 58.332516
357  2 0.0000 1.904394  5.497511 58.332516
358  2 0.0000 1.904394 12.094524 58.332516
359  2 0.0000 5.713181  5.497511 58.332516
360  2 0.0000 5.713181 12.094524 58.332516
361  2 0.0000 0.000000  2.199004 67.666276
362  2 0.0000 0.000000  8.796017 67.666276
363  2 0.0000 3.808787  2.199004 67.666276
364  2 0.0000 3.808787  8.796017 67.666276
365  2 0.0000 1.904394  5.497511 67.666276
366  2 0.0000 1.904394 12.094524 67.666276
367  2 0.0000 5.713181  5.497511 67.666276
368  2 0.0000 5.713181 12.094524 67.666276
369  2 0.0000 1.904394  1.099502 52.110535
370  2 0.0000 1.904394  7.696515 52.110535
371  2 0.0000 5.713181  1.099502 52.110535
372  2 0.0000 5.713181  7.696515 52.110535
373  2 0.0000 0.000000  4.398009 52.110535
374  2 0.0000 0.000000 10.995022 52.110535
375  2 0.0000 3.808787  4.398009 52.110535
376  2 0.0000 3.808787 10.995022 52.110535
377  2 0.0000 0.000000  2.199004 21.000087
378  2 0.0000 0.000000  8.796017 21.000087
379  2 0.0000 3.808787  2.199004 21.000087
380  2 0.0000 3.808787  8.796017 21.000087
381  2 0.0000 1.904394  5.497511 21.000087
382  2 0.0000 1.904394 12.094524 21.000087
383  2 0.0000 5.713181  5.497511 21.000087
384  2 0.0000 5.713181 12.094524 21.000087
385  2 0.0000 0.000000  0.000000 64.555301
386  2 0.0000 0.000000  6.597013 64.555301
387  2 0.0000 3.808787 -0.000000 64.555301
388  2 0.0000 3.808787  6.597013 64.555301
389  2 0.0000 1.904394  3.298507 64.555301
390  2 0.0000 1.904394  9.895520 64.555301
391  2 0.0000 5.713181  3.298507 64.555301
392  2 0.0000 5.713181  9.895520 64.555301
393  2 0.0000 0.000000  0.000000 83.221535
394  2 0.0000 0.000000  6.597013 83.221535
395  2 0.0000 3.808787 -0.000000 83.221535
396  2 0.0000 3.808787  6.597013 83.221535
397  2 0.0000 1.904394  3.298507 83.221535
398  2 0.0000 1.904394  9.895520 83.221535
399  2 0.0000 5.713181  3.298507 83.221535
400  2 0.0000 5.713181  9.895520 83.221535
401  2 0.0000 1.904394  1.099502 61.443960
402  2 0.0000 1.904394  7.696515 61.443960
403  2 0.0000 5.713181  1.099502 61.443960
404  2 0.0000 5.713181  7.696515 61.443960
405  2 0.0000 0.000000  4.398009 61.443960
406  2 0.0000 0.000000 10.995022 61.443960
407  2 0.0000 3.808787  4.398009 61.443960
408  2 0.0000 3.808787 10.995022 61.443960
409  2 0.0000 1.904394  1.099502 24.111156
410  2 0.0000 1.904394  7.696515 24.111156
411  2 0.0000 5.713181  1.099502 24.111156
412  2 0.0000 5.713181  7.696515 24.111156
413  2 0.0000 0.000000  4.398009 24.111156
414  2 0.0000 0.000000 10.995022 24.111156
415  2 0.0000 3.808787  4.398009 24.111156
416  2 0.0000 3.808787 10.995022 24.111156
417  2 0.0000 1.904394  1.099502  5.444240
418  2 0.0000 1.904394  7.696515  5.444240
419  2 0.0000 5.713181  1.099502  5.444240
420  2 0.0000 5.713181  7.696515  5.444240
421  2 0.0000 0.000000  4.398009  5.444240
422  2 0.0000 0.000000 10.995022  5.444240
423  2 0.0000 3.808787  4.398009  5.444240
424  2 0.0000 3.808787 10.995022  5.444240
425  2 0.0000 1.904394  1.099502 42.777403
426  2 0.0000 1.904394  7.696515 42.777403
427  2 0.0000 5.713181  1.099502 42.777403
428  2 0.0000 5.713181  7.696515 42.777403
429  2 0.0000 0.000000  4.398009 42.777403
430  2 0.0000 0.000000 10.995022 42.777403
431  2 0.0000 3.808787  4.398009 42.777403
432  2 0.0000 3.808787 10.995022 42.777403
433  2 0.0000 0.000000  2.199004 48.999557
434  2 0.0000 0.000000  8.796017 48.999557
435  2 0.0000 3.808787  2.199004 48.999557
436  2 0.0000 3.808787  8.796017 48.999557
437  2 0.0000 1.904394  5.497511 48.999557
438  2 0.0000 1.904394 12.094524 48.999557
439  2 0.0000 5.713181  5.497511 48.999557
440  2 0.0000 5.713181 12.094524 48.999557
441  2 0.0000 1.904394  1.099502 14.777344
442  2 0.0000 1.904394  7.696515 14.777344
443  2 0.0000 5.713181  1.099502 14.777344
444  2 0.0000 5.713181  7.696515 14.777344
445  2 0.0000 0.000000  4.398009 14.777344
446  2 0.0000 0.000000 10.995022 14.777344
447  2 0.0000 3.808787  4.398009 14.777344
448  2 0.0000 3.808787 10.995022 14.777344

